<VTKFile type="UnstructuredGrid" version="0.1"> 
<UnstructuredGrid> 
<Piece NumberOfPoints="578" NumberOfCells="256"> 
<Points> 
<DataArray  type="Float64"  NumberOfComponents="3" format="ascii" >
0.00000 0.00000 0.00000
48.0000 44.0000 0.00000
48.0000 60.0000 0.00000
0.00000 44.0000 0.00000
0.00000 0.00000 5.00000
48.0000 44.0000 5.00000
48.0000 60.0000 5.00000
0.00000 44.0000 5.00000
3.00000 2.75000 0.00000
6.00000 5.50000 0.00000
9.00000 8.25000 0.00000
12.0000 11.0000 0.00000
15.0000 13.7500 0.00000
18.0000 16.5000 0.00000
21.0000 19.2500 0.00000
24.0000 22.0000 0.00000
27.0000 24.7500 0.00000
30.0000 27.5000 0.00000
33.0000 30.2500 0.00000
36.0000 33.0000 0.00000
39.0000 35.7500 0.00000
42.0000 38.5000 0.00000
45.0000 41.2500 0.00000
48.0000 45.0000 0.00000
48.0000 46.0000 0.00000
48.0000 47.0000 0.00000
48.0000 48.0000 0.00000
48.0000 49.0000 0.00000
48.0000 50.0000 0.00000
48.0000 51.0000 0.00000
48.0000 52.0000 0.00000
48.0000 53.0000 0.00000
48.0000 54.0000 0.00000
48.0000 55.0000 0.00000
48.0000 56.0000 0.00000
48.0000 57.0000 0.00000
48.0000 58.0000 0.00000
48.0000 59.0000 0.00000
45.0000 59.0000 0.00000
42.0000 58.0000 0.00000
39.0000 57.0000 0.00000
36.0000 56.0000 0.00000
33.0000 55.0000 0.00000
30.0000 54.0000 0.00000
27.0000 53.0000 0.00000
24.0000 52.0000 0.00000
21.0000 51.0000 0.00000
18.0000 50.0000 0.00000
15.0000 49.0000 0.00000
12.0000 48.0000 0.00000
9.00000 47.0000 0.00000
6.00000 46.0000 0.00000
3.00000 45.0000 0.00000
0.00000 41.2500 0.00000
0.00000 38.5000 0.00000
0.00000 35.7500 0.00000
0.00000 33.0000 0.00000
0.00000 30.2500 0.00000
0.00000 27.5000 0.00000
0.00000 24.7500 0.00000
0.00000 22.0000 0.00000
0.00000 19.2500 0.00000
0.00000 16.5000 0.00000
0.00000 13.7500 0.00000
0.00000 11.0000 0.00000
0.00000 8.25000 0.00000
0.00000 5.50000 0.00000
0.00000 2.75000 0.00000
3.00000 2.75000 5.00000
6.00000 5.50000 5.00000
9.00000 8.25000 5.00000
12.0000 11.0000 5.00000
15.0000 13.7500 5.00000
18.0000 16.5000 5.00000
21.0000 19.2500 5.00000
24.0000 22.0000 5.00000
27.0000 24.7500 5.00000
30.0000 27.5000 5.00000
33.0000 30.2500 5.00000
36.0000 33.0000 5.00000
39.0000 35.7500 5.00000
42.0000 38.5000 5.00000
45.0000 41.2500 5.00000
48.0000 45.0000 5.00000
48.0000 46.0000 5.00000
48.0000 47.0000 5.00000
48.0000 48.0000 5.00000
48.0000 49.0000 5.00000
48.0000 50.0000 5.00000
48.0000 51.0000 5.00000
48.0000 52.0000 5.00000
48.0000 53.0000 5.00000
48.0000 54.0000 5.00000
48.0000 55.0000 5.00000
48.0000 56.0000 5.00000
48.0000 57.0000 5.00000
48.0000 58.0000 5.00000
48.0000 59.0000 5.00000
45.0000 59.0000 5.00000
42.0000 58.0000 5.00000
39.0000 57.0000 5.00000
36.0000 56.0000 5.00000
33.0000 55.0000 5.00000
30.0000 54.0000 5.00000
27.0000 53.0000 5.00000
24.0000 52.0000 5.00000
21.0000 51.0000 5.00000
18.0000 50.0000 5.00000
15.0000 49.0000 5.00000
12.0000 48.0000 5.00000
9.00000 47.0000 5.00000
6.00000 46.0000 5.00000
3.00000 45.0000 5.00000
0.00000 41.2500 5.00000
0.00000 38.5000 5.00000
0.00000 35.7500 5.00000
0.00000 33.0000 5.00000
0.00000 30.2500 5.00000
0.00000 27.5000 5.00000
0.00000 24.7500 5.00000
0.00000 22.0000 5.00000
0.00000 19.2500 5.00000
0.00000 16.5000 5.00000
0.00000 13.7500 5.00000
0.00000 11.0000 5.00000
0.00000 8.25000 5.00000
0.00000 5.50000 5.00000
0.00000 2.75000 5.00000
3.00000 5.39062 0.00000
3.00000 8.03125 0.00000
3.00000 10.6719 0.00000
3.00000 13.3125 0.00000
3.00000 15.9531 0.00000
3.00000 18.5938 0.00000
3.00000 21.2344 0.00000
3.00000 23.8750 0.00000
3.00000 26.5156 0.00000
3.00000 29.1562 0.00000
3.00000 31.7969 0.00000
3.00000 34.4375 0.00000
3.00000 37.0781 0.00000
3.00000 39.7188 0.00000
3.00000 42.3594 0.00000
6.00000 8.03125 0.00000
6.00000 10.5625 0.00000
6.00000 13.0938 0.00000
6.00000 15.6250 0.00000
6.00000 18.1562 0.00000
6.00000 20.6875 0.00000
6.00000 23.2188 0.00000
6.00000 25.7500 0.00000
6.00000 28.2812 0.00000
6.00000 30.8125 0.00000
6.00000 33.3438 0.00000
6.00000 35.8750 0.00000
6.00000 38.4062 0.00000
6.00000 40.9375 0.00000
6.00000 43.4688 0.00000
9.00000 10.6719 0.00000
9.00000 13.0938 0.00000
9.00000 15.5156 0.00000
9.00000 17.9375 0.00000
9.00000 20.3594 0.00000
9.00000 22.7812 0.00000
9.00000 25.2031 0.00000
9.00000 27.6250 0.00000
9.00000 30.0469 0.00000
9.00000 32.4688 0.00000
9.00000 34.8906 0.00000
9.00000 37.3125 0.00000
9.00000 39.7344 0.00000
9.00000 42.1562 0.00000
9.00000 44.5781 0.00000
12.0000 13.3125 0.00000
12.0000 15.6250 0.00000
12.0000 17.9375 0.00000
12.0000 20.2500 0.00000
12.0000 22.5625 0.00000
12.0000 24.8750 0.00000
12.0000 27.1875 0.00000
12.0000 29.5000 0.00000
12.0000 31.8125 0.00000
12.0000 34.1250 0.00000
12.0000 36.4375 0.00000
12.0000 38.7500 0.00000
12.0000 41.0625 0.00000
12.0000 43.3750 0.00000
12.0000 45.6875 0.00000
15.0000 15.9531 0.00000
15.0000 18.1562 0.00000
15.0000 20.3594 0.00000
15.0000 22.5625 0.00000
15.0000 24.7656 0.00000
15.0000 26.9688 0.00000
15.0000 29.1719 0.00000
15.0000 31.3750 0.00000
15.0000 33.5781 0.00000
15.0000 35.7812 0.00000
15.0000 37.9844 0.00000
15.0000 40.1875 0.00000
15.0000 42.3906 0.00000
15.0000 44.5938 0.00000
15.0000 46.7969 0.00000
18.0000 18.5938 0.00000
18.0000 20.6875 0.00000
18.0000 22.7812 0.00000
18.0000 24.8750 0.00000
18.0000 26.9688 0.00000
18.0000 29.0625 0.00000
18.0000 31.1562 0.00000
18.0000 33.2500 0.00000
18.0000 35.3438 0.00000
18.0000 37.4375 0.00000
18.0000 39.5312 0.00000
18.0000 41.6250 0.00000
18.0000 43.7188 0.00000
18.0000 45.8125 0.00000
18.0000 47.9062 0.00000
21.0000 21.2344 0.00000
21.0000 23.2188 0.00000
21.0000 25.2031 0.00000
21.0000 27.1875 0.00000
21.0000 29.1719 0.00000
21.0000 31.1562 0.00000
21.0000 33.1406 0.00000
21.0000 35.1250 0.00000
21.0000 37.1094 0.00000
21.0000 39.0938 0.00000
21.0000 41.0781 0.00000
21.0000 43.0625 0.00000
21.0000 45.0469 0.00000
21.0000 47.0312 0.00000
21.0000 49.0156 0.00000
24.0000 23.8750 0.00000
24.0000 25.7500 0.00000
24.0000 27.6250 0.00000
24.0000 29.5000 0.00000
24.0000 31.3750 0.00000
24.0000 33.2500 0.00000
24.0000 35.1250 0.00000
24.0000 37.0000 0.00000
24.0000 38.8750 0.00000
24.0000 40.7500 0.00000
24.0000 42.6250 0.00000
24.0000 44.5000 0.00000
24.0000 46.3750 0.00000
24.0000 48.2500 0.00000
24.0000 50.1250 0.00000
27.0000 26.5156 0.00000
27.0000 28.2812 0.00000
27.0000 30.0469 0.00000
27.0000 31.8125 0.00000
27.0000 33.5781 0.00000
27.0000 35.3438 0.00000
27.0000 37.1094 0.00000
27.0000 38.8750 0.00000
27.0000 40.6406 0.00000
27.0000 42.4062 0.00000
27.0000 44.1719 0.00000
27.0000 45.9375 0.00000
27.0000 47.7031 0.00000
27.0000 49.4688 0.00000
27.0000 51.2344 0.00000
30.0000 29.1562 0.00000
30.0000 30.8125 0.00000
30.0000 32.4688 0.00000
30.0000 34.1250 0.00000
30.0000 35.7812 0.00000
30.0000 37.4375 0.00000
30.0000 39.0938 0.00000
30.0000 40.7500 0.00000
30.0000 42.4062 0.00000
30.0000 44.0625 0.00000
30.0000 45.7188 0.00000
30.0000 47.3750 0.00000
30.0000 49.0312 0.00000
30.0000 50.6875 0.00000
30.0000 52.3438 0.00000
33.0000 31.7969 0.00000
33.0000 33.3438 0.00000
33.0000 34.8906 0.00000
33.0000 36.4375 0.00000
33.0000 37.9844 0.00000
33.0000 39.5312 0.00000
33.0000 41.0781 0.00000
33.0000 42.6250 0.00000
33.0000 44.1719 0.00000
33.0000 45.7188 0.00000
33.0000 47.2656 0.00000
33.0000 48.8125 0.00000
33.0000 50.3594 0.00000
33.0000 51.9062 0.00000
33.0000 53.4531 0.00000
36.0000 34.4375 0.00000
36.0000 35.8750 0.00000
36.0000 37.3125 0.00000
36.0000 38.7500 0.00000
36.0000 40.1875 0.00000
36.0000 41.6250 0.00000
36.0000 43.0625 0.00000
36.0000 44.5000 0.00000
36.0000 45.9375 0.00000
36.0000 47.3750 0.00000
36.0000 48.8125 0.00000
36.0000 50.2500 0.00000
36.0000 51.6875 0.00000
36.0000 53.1250 0.00000
36.0000 54.5625 0.00000
39.0000 37.0781 0.00000
39.0000 38.4062 0.00000
39.0000 39.7344 0.00000
39.0000 41.0625 0.00000
39.0000 42.3906 0.00000
39.0000 43.7188 0.00000
39.0000 45.0469 0.00000
39.0000 46.3750 0.00000
39.0000 47.7031 0.00000
39.0000 49.0312 0.00000
39.0000 50.3594 0.00000
39.0000 51.6875 0.00000
39.0000 53.0156 0.00000
39.0000 54.3438 0.00000
39.0000 55.6719 0.00000
42.0000 39.7188 0.00000
42.0000 40.9375 0.00000
42.0000 42.1562 0.00000
42.0000 43.3750 0.00000
42.0000 44.5938 0.00000
42.0000 45.8125 0.00000
42.0000 47.0312 0.00000
42.0000 48.2500 0.00000
42.0000 49.4688 0.00000
42.0000 50.6875 0.00000
42.0000 51.9062 0.00000
42.0000 53.1250 0.00000
42.0000 54.3438 0.00000
42.0000 55.5625 0.00000
42.0000 56.7812 0.00000
45.0000 42.3594 0.00000
45.0000 43.4688 0.00000
45.0000 44.5781 0.00000
45.0000 45.6875 0.00000
45.0000 46.7969 0.00000
45.0000 47.9062 0.00000
45.0000 49.0156 0.00000
45.0000 50.1250 0.00000
45.0000 51.2344 0.00000
45.0000 52.3438 0.00000
45.0000 53.4531 0.00000
45.0000 54.5625 0.00000
45.0000 55.6719 0.00000
45.0000 56.7812 0.00000
45.0000 57.8906 0.00000
3.00000 5.39062 5.00000
3.00000 8.03125 5.00000
3.00000 10.6719 5.00000
3.00000 13.3125 5.00000
3.00000 15.9531 5.00000
3.00000 18.5938 5.00000
3.00000 21.2344 5.00000
3.00000 23.8750 5.00000
3.00000 26.5156 5.00000
3.00000 29.1562 5.00000
3.00000 31.7969 5.00000
3.00000 34.4375 5.00000
3.00000 37.0781 5.00000
3.00000 39.7188 5.00000
3.00000 42.3594 5.00000
6.00000 8.03125 5.00000
6.00000 10.5625 5.00000
6.00000 13.0938 5.00000
6.00000 15.6250 5.00000
6.00000 18.1562 5.00000
6.00000 20.6875 5.00000
6.00000 23.2188 5.00000
6.00000 25.7500 5.00000
6.00000 28.2812 5.00000
6.00000 30.8125 5.00000
6.00000 33.3438 5.00000
6.00000 35.8750 5.00000
6.00000 38.4062 5.00000
6.00000 40.9375 5.00000
6.00000 43.4688 5.00000
9.00000 10.6719 5.00000
9.00000 13.0938 5.00000
9.00000 15.5156 5.00000
9.00000 17.9375 5.00000
9.00000 20.3594 5.00000
9.00000 22.7812 5.00000
9.00000 25.2031 5.00000
9.00000 27.6250 5.00000
9.00000 30.0469 5.00000
9.00000 32.4688 5.00000
9.00000 34.8906 5.00000
9.00000 37.3125 5.00000
9.00000 39.7344 5.00000
9.00000 42.1562 5.00000
9.00000 44.5781 5.00000
12.0000 13.3125 5.00000
12.0000 15.6250 5.00000
12.0000 17.9375 5.00000
12.0000 20.2500 5.00000
12.0000 22.5625 5.00000
12.0000 24.8750 5.00000
12.0000 27.1875 5.00000
12.0000 29.5000 5.00000
12.0000 31.8125 5.00000
12.0000 34.1250 5.00000
12.0000 36.4375 5.00000
12.0000 38.7500 5.00000
12.0000 41.0625 5.00000
12.0000 43.3750 5.00000
12.0000 45.6875 5.00000
15.0000 15.9531 5.00000
15.0000 18.1562 5.00000
15.0000 20.3594 5.00000
15.0000 22.5625 5.00000
15.0000 24.7656 5.00000
15.0000 26.9688 5.00000
15.0000 29.1719 5.00000
15.0000 31.3750 5.00000
15.0000 33.5781 5.00000
15.0000 35.7812 5.00000
15.0000 37.9844 5.00000
15.0000 40.1875 5.00000
15.0000 42.3906 5.00000
15.0000 44.5938 5.00000
15.0000 46.7969 5.00000
18.0000 18.5938 5.00000
18.0000 20.6875 5.00000
18.0000 22.7812 5.00000
18.0000 24.8750 5.00000
18.0000 26.9688 5.00000
18.0000 29.0625 5.00000
18.0000 31.1562 5.00000
18.0000 33.2500 5.00000
18.0000 35.3438 5.00000
18.0000 37.4375 5.00000
18.0000 39.5312 5.00000
18.0000 41.6250 5.00000
18.0000 43.7188 5.00000
18.0000 45.8125 5.00000
18.0000 47.9062 5.00000
21.0000 21.2344 5.00000
21.0000 23.2188 5.00000
21.0000 25.2031 5.00000
21.0000 27.1875 5.00000
21.0000 29.1719 5.00000
21.0000 31.1562 5.00000
21.0000 33.1406 5.00000
21.0000 35.1250 5.00000
21.0000 37.1094 5.00000
21.0000 39.0938 5.00000
21.0000 41.0781 5.00000
21.0000 43.0625 5.00000
21.0000 45.0469 5.00000
21.0000 47.0312 5.00000
21.0000 49.0156 5.00000
24.0000 23.8750 5.00000
24.0000 25.7500 5.00000
24.0000 27.6250 5.00000
24.0000 29.5000 5.00000
24.0000 31.3750 5.00000
24.0000 33.2500 5.00000
24.0000 35.1250 5.00000
24.0000 37.0000 5.00000
24.0000 38.8750 5.00000
24.0000 40.7500 5.00000
24.0000 42.6250 5.00000
24.0000 44.5000 5.00000
24.0000 46.3750 5.00000
24.0000 48.2500 5.00000
24.0000 50.1250 5.00000
27.0000 26.5156 5.00000
27.0000 28.2812 5.00000
27.0000 30.0469 5.00000
27.0000 31.8125 5.00000
27.0000 33.5781 5.00000
27.0000 35.3438 5.00000
27.0000 37.1094 5.00000
27.0000 38.8750 5.00000
27.0000 40.6406 5.00000
27.0000 42.4062 5.00000
27.0000 44.1719 5.00000
27.0000 45.9375 5.00000
27.0000 47.7031 5.00000
27.0000 49.4688 5.00000
27.0000 51.2344 5.00000
30.0000 29.1562 5.00000
30.0000 30.8125 5.00000
30.0000 32.4688 5.00000
30.0000 34.1250 5.00000
30.0000 35.7812 5.00000
30.0000 37.4375 5.00000
30.0000 39.0938 5.00000
30.0000 40.7500 5.00000
30.0000 42.4062 5.00000
30.0000 44.0625 5.00000
30.0000 45.7188 5.00000
30.0000 47.3750 5.00000
30.0000 49.0312 5.00000
30.0000 50.6875 5.00000
30.0000 52.3438 5.00000
33.0000 31.7969 5.00000
33.0000 33.3438 5.00000
33.0000 34.8906 5.00000
33.0000 36.4375 5.00000
33.0000 37.9844 5.00000
33.0000 39.5312 5.00000
33.0000 41.0781 5.00000
33.0000 42.6250 5.00000
33.0000 44.1719 5.00000
33.0000 45.7188 5.00000
33.0000 47.2656 5.00000
33.0000 48.8125 5.00000
33.0000 50.3594 5.00000
33.0000 51.9062 5.00000
33.0000 53.4531 5.00000
36.0000 34.4375 5.00000
36.0000 35.8750 5.00000
36.0000 37.3125 5.00000
36.0000 38.7500 5.00000
36.0000 40.1875 5.00000
36.0000 41.6250 5.00000
36.0000 43.0625 5.00000
36.0000 44.5000 5.00000
36.0000 45.9375 5.00000
36.0000 47.3750 5.00000
36.0000 48.8125 5.00000
36.0000 50.2500 5.00000
36.0000 51.6875 5.00000
36.0000 53.1250 5.00000
36.0000 54.5625 5.00000
39.0000 37.0781 5.00000
39.0000 38.4062 5.00000
39.0000 39.7344 5.00000
39.0000 41.0625 5.00000
39.0000 42.3906 5.00000
39.0000 43.7188 5.00000
39.0000 45.0469 5.00000
39.0000 46.3750 5.00000
39.0000 47.7031 5.00000
39.0000 49.0312 5.00000
39.0000 50.3594 5.00000
39.0000 51.6875 5.00000
39.0000 53.0156 5.00000
39.0000 54.3438 5.00000
39.0000 55.6719 5.00000
42.0000 39.7188 5.00000
42.0000 40.9375 5.00000
42.0000 42.1562 5.00000
42.0000 43.3750 5.00000
42.0000 44.5938 5.00000
42.0000 45.8125 5.00000
42.0000 47.0312 5.00000
42.0000 48.2500 5.00000
42.0000 49.4688 5.00000
42.0000 50.6875 5.00000
42.0000 51.9062 5.00000
42.0000 53.1250 5.00000
42.0000 54.3438 5.00000
42.0000 55.5625 5.00000
42.0000 56.7812 5.00000
45.0000 42.3594 5.00000
45.0000 43.4688 5.00000
45.0000 44.5781 5.00000
45.0000 45.6875 5.00000
45.0000 46.7969 5.00000
45.0000 47.9062 5.00000
45.0000 49.0156 5.00000
45.0000 50.1250 5.00000
45.0000 51.2344 5.00000
45.0000 52.3438 5.00000
45.0000 53.4531 5.00000
45.0000 54.5625 5.00000
45.0000 55.6719 5.00000
45.0000 56.7812 5.00000
45.0000 57.8906 5.00000
</DataArray>
 </Points>
<Cells> 
<DataArray  type="Int32" Name="connectivity" format="ascii">
0 8 128 67 4 68 353 127 
67 128 129 66 127 353 354 126 
66 129 130 65 126 354 355 125 
65 130 131 64 125 355 356 124 
64 131 132 63 124 356 357 123 
63 132 133 62 123 357 358 122 
62 133 134 61 122 358 359 121 
61 134 135 60 121 359 360 120 
60 135 136 59 120 360 361 119 
59 136 137 58 119 361 362 118 
58 137 138 57 118 362 363 117 
57 138 139 56 117 363 364 116 
56 139 140 55 116 364 365 115 
55 140 141 54 115 365 366 114 
54 141 142 53 114 366 367 113 
53 142 52 3 113 367 112 7 
8 9 143 128 68 69 368 353 
128 143 144 129 353 368 369 354 
129 144 145 130 354 369 370 355 
130 145 146 131 355 370 371 356 
131 146 147 132 356 371 372 357 
132 147 148 133 357 372 373 358 
133 148 149 134 358 373 374 359 
134 149 150 135 359 374 375 360 
135 150 151 136 360 375 376 361 
136 151 152 137 361 376 377 362 
137 152 153 138 362 377 378 363 
138 153 154 139 363 378 379 364 
139 154 155 140 364 379 380 365 
140 155 156 141 365 380 381 366 
141 156 157 142 366 381 382 367 
142 157 51 52 367 382 111 112 
9 10 158 143 69 70 383 368 
143 158 159 144 368 383 384 369 
144 159 160 145 369 384 385 370 
145 160 161 146 370 385 386 371 
146 161 162 147 371 386 387 372 
147 162 163 148 372 387 388 373 
148 163 164 149 373 388 389 374 
149 164 165 150 374 389 390 375 
150 165 166 151 375 390 391 376 
151 166 167 152 376 391 392 377 
152 167 168 153 377 392 393 378 
153 168 169 154 378 393 394 379 
154 169 170 155 379 394 395 380 
155 170 171 156 380 395 396 381 
156 171 172 157 381 396 397 382 
157 172 50 51 382 397 110 111 
10 11 173 158 70 71 398 383 
158 173 174 159 383 398 399 384 
159 174 175 160 384 399 400 385 
160 175 176 161 385 400 401 386 
161 176 177 162 386 401 402 387 
162 177 178 163 387 402 403 388 
163 178 179 164 388 403 404 389 
164 179 180 165 389 404 405 390 
165 180 181 166 390 405 406 391 
166 181 182 167 391 406 407 392 
167 182 183 168 392 407 408 393 
168 183 184 169 393 408 409 394 
169 184 185 170 394 409 410 395 
170 185 186 171 395 410 411 396 
171 186 187 172 396 411 412 397 
172 187 49 50 397 412 109 110 
11 12 188 173 71 72 413 398 
173 188 189 174 398 413 414 399 
174 189 190 175 399 414 415 400 
175 190 191 176 400 415 416 401 
176 191 192 177 401 416 417 402 
177 192 193 178 402 417 418 403 
178 193 194 179 403 418 419 404 
179 194 195 180 404 419 420 405 
180 195 196 181 405 420 421 406 
181 196 197 182 406 421 422 407 
182 197 198 183 407 422 423 408 
183 198 199 184 408 423 424 409 
184 199 200 185 409 424 425 410 
185 200 201 186 410 425 426 411 
186 201 202 187 411 426 427 412 
187 202 48 49 412 427 108 109 
12 13 203 188 72 73 428 413 
188 203 204 189 413 428 429 414 
189 204 205 190 414 429 430 415 
190 205 206 191 415 430 431 416 
191 206 207 192 416 431 432 417 
192 207 208 193 417 432 433 418 
193 208 209 194 418 433 434 419 
194 209 210 195 419 434 435 420 
195 210 211 196 420 435 436 421 
196 211 212 197 421 436 437 422 
197 212 213 198 422 437 438 423 
198 213 214 199 423 438 439 424 
199 214 215 200 424 439 440 425 
200 215 216 201 425 440 441 426 
201 216 217 202 426 441 442 427 
202 217 47 48 427 442 107 108 
13 14 218 203 73 74 443 428 
203 218 219 204 428 443 444 429 
204 219 220 205 429 444 445 430 
205 220 221 206 430 445 446 431 
206 221 222 207 431 446 447 432 
207 222 223 208 432 447 448 433 
208 223 224 209 433 448 449 434 
209 224 225 210 434 449 450 435 
210 225 226 211 435 450 451 436 
211 226 227 212 436 451 452 437 
212 227 228 213 437 452 453 438 
213 228 229 214 438 453 454 439 
214 229 230 215 439 454 455 440 
215 230 231 216 440 455 456 441 
216 231 232 217 441 456 457 442 
217 232 46 47 442 457 106 107 
14 15 233 218 74 75 458 443 
218 233 234 219 443 458 459 444 
219 234 235 220 444 459 460 445 
220 235 236 221 445 460 461 446 
221 236 237 222 446 461 462 447 
222 237 238 223 447 462 463 448 
223 238 239 224 448 463 464 449 
224 239 240 225 449 464 465 450 
225 240 241 226 450 465 466 451 
226 241 242 227 451 466 467 452 
227 242 243 228 452 467 468 453 
228 243 244 229 453 468 469 454 
229 244 245 230 454 469 470 455 
230 245 246 231 455 470 471 456 
231 246 247 232 456 471 472 457 
232 247 45 46 457 472 105 106 
15 16 248 233 75 76 473 458 
233 248 249 234 458 473 474 459 
234 249 250 235 459 474 475 460 
235 250 251 236 460 475 476 461 
236 251 252 237 461 476 477 462 
237 252 253 238 462 477 478 463 
238 253 254 239 463 478 479 464 
239 254 255 240 464 479 480 465 
240 255 256 241 465 480 481 466 
241 256 257 242 466 481 482 467 
242 257 258 243 467 482 483 468 
243 258 259 244 468 483 484 469 
244 259 260 245 469 484 485 470 
245 260 261 246 470 485 486 471 
246 261 262 247 471 486 487 472 
247 262 44 45 472 487 104 105 
16 17 263 248 76 77 488 473 
248 263 264 249 473 488 489 474 
249 264 265 250 474 489 490 475 
250 265 266 251 475 490 491 476 
251 266 267 252 476 491 492 477 
252 267 268 253 477 492 493 478 
253 268 269 254 478 493 494 479 
254 269 270 255 479 494 495 480 
255 270 271 256 480 495 496 481 
256 271 272 257 481 496 497 482 
257 272 273 258 482 497 498 483 
258 273 274 259 483 498 499 484 
259 274 275 260 484 499 500 485 
260 275 276 261 485 500 501 486 
261 276 277 262 486 501 502 487 
262 277 43 44 487 502 103 104 
17 18 278 263 77 78 503 488 
263 278 279 264 488 503 504 489 
264 279 280 265 489 504 505 490 
265 280 281 266 490 505 506 491 
266 281 282 267 491 506 507 492 
267 282 283 268 492 507 508 493 
268 283 284 269 493 508 509 494 
269 284 285 270 494 509 510 495 
270 285 286 271 495 510 511 496 
271 286 287 272 496 511 512 497 
272 287 288 273 497 512 513 498 
273 288 289 274 498 513 514 499 
274 289 290 275 499 514 515 500 
275 290 291 276 500 515 516 501 
276 291 292 277 501 516 517 502 
277 292 42 43 502 517 102 103 
18 19 293 278 78 79 518 503 
278 293 294 279 503 518 519 504 
279 294 295 280 504 519 520 505 
280 295 296 281 505 520 521 506 
281 296 297 282 506 521 522 507 
282 297 298 283 507 522 523 508 
283 298 299 284 508 523 524 509 
284 299 300 285 509 524 525 510 
285 300 301 286 510 525 526 511 
286 301 302 287 511 526 527 512 
287 302 303 288 512 527 528 513 
288 303 304 289 513 528 529 514 
289 304 305 290 514 529 530 515 
290 305 306 291 515 530 531 516 
291 306 307 292 516 531 532 517 
292 307 41 42 517 532 101 102 
19 20 308 293 79 80 533 518 
293 308 309 294 518 533 534 519 
294 309 310 295 519 534 535 520 
295 310 311 296 520 535 536 521 
296 311 312 297 521 536 537 522 
297 312 313 298 522 537 538 523 
298 313 314 299 523 538 539 524 
299 314 315 300 524 539 540 525 
300 315 316 301 525 540 541 526 
301 316 317 302 526 541 542 527 
302 317 318 303 527 542 543 528 
303 318 319 304 528 543 544 529 
304 319 320 305 529 544 545 530 
305 320 321 306 530 545 546 531 
306 321 322 307 531 546 547 532 
307 322 40 41 532 547 100 101 
20 21 323 308 80 81 548 533 
308 323 324 309 533 548 549 534 
309 324 325 310 534 549 550 535 
310 325 326 311 535 550 551 536 
311 326 327 312 536 551 552 537 
312 327 328 313 537 552 553 538 
313 328 329 314 538 553 554 539 
314 329 330 315 539 554 555 540 
315 330 331 316 540 555 556 541 
316 331 332 317 541 556 557 542 
317 332 333 318 542 557 558 543 
318 333 334 319 543 558 559 544 
319 334 335 320 544 559 560 545 
320 335 336 321 545 560 561 546 
321 336 337 322 546 561 562 547 
322 337 39 40 547 562 99 100 
21 22 338 323 81 82 563 548 
323 338 339 324 548 563 564 549 
324 339 340 325 549 564 565 550 
325 340 341 326 550 565 566 551 
326 341 342 327 551 566 567 552 
327 342 343 328 552 567 568 553 
328 343 344 329 553 568 569 554 
329 344 345 330 554 569 570 555 
330 345 346 331 555 570 571 556 
331 346 347 332 556 571 572 557 
332 347 348 333 557 572 573 558 
333 348 349 334 558 573 574 559 
334 349 350 335 559 574 575 560 
335 350 351 336 560 575 576 561 
336 351 352 337 561 576 577 562 
337 352 38 39 562 577 98 99 
22 1 23 338 82 5 83 563 
338 23 24 339 563 83 84 564 
339 24 25 340 564 84 85 565 
340 25 26 341 565 85 86 566 
341 26 27 342 566 86 87 567 
342 27 28 343 567 87 88 568 
343 28 29 344 568 88 89 569 
344 29 30 345 569 89 90 570 
345 30 31 346 570 90 91 571 
346 31 32 347 571 91 92 572 
347 32 33 348 572 92 93 573 
348 33 34 349 573 93 94 574 
349 34 35 350 574 94 95 575 
350 35 36 351 575 95 96 576 
351 36 37 352 576 96 97 577 
352 37 2 38 577 97 6 98 
</DataArray>
<DataArray  type="Int32"  Name="offsets"  format="ascii"> 
8
16
24
32
40
48
56
64
72
80
88
96
104
112
120
128
136
144
152
160
168
176
184
192
200
208
216
224
232
240
248
256
264
272
280
288
296
304
312
320
328
336
344
352
360
368
376
384
392
400
408
416
424
432
440
448
456
464
472
480
488
496
504
512
520
528
536
544
552
560
568
576
584
592
600
608
616
624
632
640
648
656
664
672
680
688
696
704
712
720
728
736
744
752
760
768
776
784
792
800
808
816
824
832
840
848
856
864
872
880
888
896
904
912
920
928
936
944
952
960
968
976
984
992
1000
1008
1016
1024
1032
1040
1048
1056
1064
1072
1080
1088
1096
1104
1112
1120
1128
1136
1144
1152
1160
1168
1176
1184
1192
1200
1208
1216
1224
1232
1240
1248
1256
1264
1272
1280
1288
1296
1304
1312
1320
1328
1336
1344
1352
1360
1368
1376
1384
1392
1400
1408
1416
1424
1432
1440
1448
1456
1464
1472
1480
1488
1496
1504
1512
1520
1528
1536
1544
1552
1560
1568
1576
1584
1592
1600
1608
1616
1624
1632
1640
1648
1656
1664
1672
1680
1688
1696
1704
1712
1720
1728
1736
1744
1752
1760
1768
1776
1784
1792
1800
1808
1816
1824
1832
1840
1848
1856
1864
1872
1880
1888
1896
1904
1912
1920
1928
1936
1944
1952
1960
1968
1976
1984
1992
2000
2008
2016
2024
2032
2040
2048
</DataArray>
<DataArray  type="UInt8"  Name="types"  format="ascii"> 
12
12
12
12
12
12
12
12
12
12
12
12
12
12
12
12
12
12
12
12
12
12
12
12
12
12
12
12
12
12
12
12
12
12
12
12
12
12
12
12
12
12
12
12
12
12
12
12
12
12
12
12
12
12
12
12
12
12
12
12
12
12
12
12
12
12
12
12
12
12
12
12
12
12
12
12
12
12
12
12
12
12
12
12
12
12
12
12
12
12
12
12
12
12
12
12
12
12
12
12
12
12
12
12
12
12
12
12
12
12
12
12
12
12
12
12
12
12
12
12
12
12
12
12
12
12
12
12
12
12
12
12
12
12
12
12
12
12
12
12
12
12
12
12
12
12
12
12
12
12
12
12
12
12
12
12
12
12
12
12
12
12
12
12
12
12
12
12
12
12
12
12
12
12
12
12
12
12
12
12
12
12
12
12
12
12
12
12
12
12
12
12
12
12
12
12
12
12
12
12
12
12
12
12
12
12
12
12
12
12
12
12
12
12
12
12
12
12
12
12
12
12
12
12
12
12
12
12
12
12
12
12
12
12
12
12
12
12
12
12
12
12
12
12
12
12
12
12
12
12
12
12
12
12
12
12
</DataArray> 
 </Cells> 
<PointData  Vectors="sigma"> 
 <DataArray  type="Float64"  Name="U" NumberOfComponents="3" format="ascii"> 
  0.00000000     0.00000000   0.00000
 -1.48319379     7.81250000   0.00000
 -5.75475731     7.81250000   0.00000
  0.00000000     0.00000000   0.00000
  0.00000000     0.00000000   0.00000
 -1.48319379     7.81250000   0.00000
 -5.75475731     7.81250000   0.00000
  0.00000000     0.00000000   0.00000
  0.03406341     0.08477037   0.00000
  0.09186395     0.19652923   0.00000
  0.17159742     0.32356305   0.00000
  0.27073797     0.47630180   0.00000
  0.38125048     0.67000457   0.00000
  0.49024755     0.91974712   0.00000
  0.58223521     1.23772173   0.00000
  0.64127090     1.63217824   0.00000
  0.65270339     2.10760443   0.00000
  0.60414300     2.66573738   0.00000
  0.48555816     3.30679778   0.00000
  0.28874882     4.03053031   0.00000
  0.00623352     4.83649986   0.00000
 -0.36951139     5.72649052   0.00000
 -0.85562492     6.70030680   0.00000
 -1.75620469     7.81250000   0.00000
 -2.01904853     7.81250000   0.00000
 -2.27490911     7.81250000   0.00000
 -2.52669087     7.81250000   0.00000
 -2.77680522     7.81250000   0.00000
 -3.02719384     7.81250000   0.00000
 -3.27940753     7.81250000   0.00000
 -3.53468172     7.81250000   0.00000
 -3.79399318     7.81250000   0.00000
 -4.05809494     7.81250000   0.00000
 -4.32752935     7.81250000   0.00000
 -4.60261750     7.81250000   0.00000
 -4.88342055     7.81250000   0.00000
 -5.16966344     7.81250000   0.00000
 -5.46059930     7.81250000   0.00000
 -5.45119490     6.93135025   0.00000
 -5.12382808     6.06104421   0.00000
 -4.76575083     5.22312207   0.00000
 -4.38261734     4.43841803   0.00000
 -3.98516995     3.72023567   0.00000
 -3.58408891     3.07442247   0.00000
 -3.18775954     2.50158675   0.00000
 -2.80184865     1.99927976   0.00000
 -2.42962032     1.56349607   0.00000
 -2.07235339     1.18956390   0.00000
 -1.72957382     0.87269352   0.00000
 -1.39904403     0.60823018   0.00000
 -1.07588210     0.39241895   0.00000
 -0.75183801     0.22000073   0.00000
 -0.39677413     0.10029715   0.00000
  0.00000000     0.00000000   0.00000
  0.00000000     0.00000000   0.00000
  0.00000000     0.00000000   0.00000
  0.00000000     0.00000000   0.00000
  0.00000000     0.00000000   0.00000
  0.00000000     0.00000000   0.00000
  0.00000000     0.00000000   0.00000
  0.00000000     0.00000000   0.00000
  0.00000000     0.00000000   0.00000
  0.00000000     0.00000000   0.00000
  0.00000000     0.00000000   0.00000
  0.00000000     0.00000000   0.00000
  0.00000000     0.00000000   0.00000
  0.00000000     0.00000000   0.00000
  0.00000000     0.00000000   0.00000
  0.03406341     0.08477037   0.00000
  0.09186395     0.19652923   0.00000
  0.17159742     0.32356305   0.00000
  0.27073797     0.47630180   0.00000
  0.38125048     0.67000457   0.00000
  0.49024755     0.91974712   0.00000
  0.58223521     1.23772173   0.00000
  0.64127090     1.63217824   0.00000
  0.65270339     2.10760443   0.00000
  0.60414300     2.66573738   0.00000
  0.48555816     3.30679778   0.00000
  0.28874882     4.03053031   0.00000
  0.00623352     4.83649986   0.00000
 -0.36951139     5.72649052   0.00000
 -0.85562492     6.70030680   0.00000
 -1.75620469     7.81250000   0.00000
 -2.01904853     7.81250000   0.00000
 -2.27490911     7.81250000   0.00000
 -2.52669087     7.81250000   0.00000
 -2.77680522     7.81250000   0.00000
 -3.02719384     7.81250000   0.00000
 -3.27940753     7.81250000   0.00000
 -3.53468172     7.81250000   0.00000
 -3.79399318     7.81250000   0.00000
 -4.05809494     7.81250000   0.00000
 -4.32752935     7.81250000   0.00000
 -4.60261750     7.81250000   0.00000
 -4.88342055     7.81250000   0.00000
 -5.16966344     7.81250000   0.00000
 -5.46059930     7.81250000   0.00000
 -5.45119490     6.93135025   0.00000
 -5.12382808     6.06104421   0.00000
 -4.76575083     5.22312207   0.00000
 -4.38261734     4.43841803   0.00000
 -3.98516995     3.72023567   0.00000
 -3.58408891     3.07442247   0.00000
 -3.18775954     2.50158675   0.00000
 -2.80184865     1.99927976   0.00000
 -2.42962032     1.56349607   0.00000
 -2.07235339     1.18956390   0.00000
 -1.72957382     0.87269352   0.00000
 -1.39904403     0.60823018   0.00000
 -1.07588210     0.39241895   0.00000
 -0.75183801     0.22000073   0.00000
 -0.39677413     0.10029715   0.00000
  0.00000000     0.00000000   0.00000
  0.00000000     0.00000000   0.00000
  0.00000000     0.00000000   0.00000
  0.00000000     0.00000000   0.00000
  0.00000000     0.00000000   0.00000
  0.00000000     0.00000000   0.00000
  0.00000000     0.00000000   0.00000
  0.00000000     0.00000000   0.00000
  0.00000000     0.00000000   0.00000
  0.00000000     0.00000000   0.00000
  0.00000000     0.00000000   0.00000
  0.00000000     0.00000000   0.00000
  0.00000000     0.00000000   0.00000
  0.00000000     0.00000000   0.00000
  0.00000000     0.00000000   0.00000
  0.04802600     0.10158424   0.00000
  0.05881609     0.11134253   0.00000
  0.06695462     0.11556170   0.00000
  0.07184885     0.11507970   0.00000
  0.07303087     0.11068016   0.00000
  0.07020634     0.10314515   0.00000
  0.06320419     0.09323849   0.00000
  0.05191152     0.08169286   0.00000
  0.03620608     0.06921834   0.00000
  0.01587654     0.05653862   0.00000
 -0.00949831     0.04447150   0.00000
 -0.04079131     0.03410278   0.00000
 -0.07988814     0.02724128   0.00000
 -0.13166417     0.02750020   0.00000
 -0.20808571     0.04653097   0.00000
  0.11708757     0.21656284   0.00000
  0.13715790     0.22887975   0.00000
  0.15060595     0.23380422   0.00000
  0.15646449     0.23226415   0.00000
  0.15413416     0.22535829   0.00000
  0.14327868     0.21425849   0.00000
  0.12369727     0.20016020   0.00000
  0.09519750     0.18428018   0.00000
  0.05745872     0.16790008   0.00000
  0.00985286     0.15246605   0.00000
 -0.04885037     0.13977393   0.00000
 -0.12105239     0.13230388   0.00000
 -0.21162955     0.13374214   0.00000
 -0.33052799     0.14982481   0.00000
 -0.50442852     0.18408868   0.00000
  0.20445585     0.34672341   0.00000
  0.22771019     0.36102800   0.00000
  0.23982629     0.36729098   0.00000
  0.23992550     0.36668216   0.00000
  0.22755640     0.36055467   0.00000
  0.20248045     0.35033908   0.00000
  0.16449711     0.33751680   0.00000
  0.11328018     0.32364174   0.00000
  0.04819531     0.31040064   0.00000
 -0.03194583     0.29970690   0.00000
 -0.12926431     0.29381140   0.00000
 -0.24744392     0.29534788   0.00000
 -0.39265993     0.30706385   0.00000
 -0.57521125     0.33002468   0.00000
 -0.80362555     0.35999185   0.00000
  0.30414716     0.50336095   0.00000
  0.32285376     0.52101398   0.00000
  0.32597537     0.53057875   0.00000
  0.31308391     0.53355012   0.00000
  0.28399541     0.53148210   0.00000
  0.23858283     0.52595823   0.00000
  0.17661388     0.51859432   0.00000
  0.09759595     0.51105899   0.00000
  0.00060558     0.50509570   0.00000
 -0.11591803     0.50251882   0.00000
 -0.25442237     0.50512667   0.00000
 -0.41846744     0.51442419   0.00000
 -0.61272394     0.53095574   0.00000
 -0.84118051     0.55349618   0.00000
 -1.10445635     0.57988149   0.00000
  0.40589228     0.70135701   0.00000
  0.41147028     0.72349557   0.00000
  0.39786427     0.73804279   0.00000
  0.36509658     0.74664570   0.00000
  0.31321754     0.75091645   0.00000
  0.24217881     0.75243033   0.00000
  0.15172209     0.75273096   0.00000
  0.04127708     0.75332495   0.00000
 -0.09013374     0.75564940   0.00000
 -0.24397045     0.76098994   0.00000
 -0.42218094     0.77032430   0.00000
 -0.62702259     0.78408393   0.00000
 -0.86039826     0.80196547   0.00000
 -1.12294226     0.82314428   0.00000
 -1.41351858     0.84671597   0.00000
  0.49663149     0.95505573   0.00000
  0.48102512     0.98199416   0.00000
  0.44386458     1.00219522   0.00000
  0.38547476     1.01724701   0.00000
  0.30605296     1.02864066   0.00000
  0.20561438     1.03777084   0.00000
  0.08394558     1.04592982   0.00000
 -0.05942630     1.05428280   0.00000
 -0.22523827     1.06381869   0.00000
 -0.41444674     1.07527686   0.00000
 -0.62809473     1.08906549   0.00000
 -0.86703996     1.10522437   0.00000
 -1.13162523     1.12351427   0.00000
 -1.42147307     1.14361551   0.00000
 -1.73552950     1.16542457   0.00000
  0.56229947     1.27600695   0.00000
  0.51903420     1.30714871   0.00000
  0.45314963     1.33255944   0.00000
  0.36510751     1.35359637   0.00000
  0.25518368     1.37149813   0.00000
  0.12347300     1.38737676   0.00000
 -0.03010386     1.40220624   0.00000
 -0.20577836     1.41679982   0.00000
 -0.40388779     1.43177997   0.00000
 -0.62479589     1.44755171   0.00000
 -0.86877986     1.46430017   0.00000
 -1.13591789     1.48203591   0.00000
 -1.42603088     1.50068974   0.00000
 -1.73871017     1.52024731   0.00000
 -2.07340756     1.54089962   0.00000
  0.58937487     1.67207169   0.00000
  0.51419541     1.70615284   0.00000
  0.41649116     1.73549655   0.00000
  0.29674875     1.76115293   0.00000
  0.15528989     1.78406709   0.00000
 -0.00769023     1.80506494   0.00000
 -0.19208990     1.82484318   0.00000
 -0.39786197     1.84395753   0.00000
 -0.62496654     1.86281263   0.00000
 -0.87332566     1.88166069   0.00000
 -1.14279908     1.90061877   0.00000
 -1.43319647     1.91971095   0.00000
 -1.74432792     1.93893533   0.00000
 -2.07607620     1.95834875   0.00000
 -2.42847447     1.97818606   0.00000
  0.56595647     2.14765818   0.00000
  0.45698086     2.18313335   0.00000
  0.32646664     2.21477211   0.00000
  0.17487729     2.24333255   0.00000
  0.00256885     2.26950583   0.00000
 -0.19016164     2.29389553   0.00000
 -0.40304244     2.31700890   0.00000
 -0.63579034     2.33924919   0.00000
 -0.88808955     2.36090405   0.00000
 -1.15960605     2.38213825   0.00000
 -1.45003942     2.40300234   0.00000
 -1.75919973     2.42346379   0.00000
 -2.08709168     2.44345947   0.00000
 -2.43399212     2.46296724   0.00000
 -2.80051912     2.48211587   0.00000
  0.48216697     2.70466467   0.00000
  0.33963431     2.74007341   0.00000
  0.17713806     2.77243683   0.00000
 -0.00488897     2.80230212   0.00000
 -0.20605951     2.83018544   0.00000
 -0.42599524     2.85655153   0.00000
 -0.66427119     2.88180557   0.00000
 -0.92038978     2.90626424   0.00000
 -1.19381845     2.93011978   0.00000
 -1.48407807     2.95342198   0.00000
 -1.79085094     2.97608992   0.00000
 -2.11408282     2.99795017   0.00000
 -2.45406674     3.01879241   0.00000
 -2.81150865     3.03843639   0.00000
 -3.18758882     3.05683296   0.00000
  0.32993255     3.34361783   0.00000
  0.15570972     3.37776736   0.00000
 -0.03659301     3.40960440   0.00000
 -0.24655809     3.43953721   0.00000
 -0.47380108     3.46798728   0.00000
 -0.71781602     3.49538169   0.00000
 -0.97791641     3.52208261   0.00000
 -1.25331569     3.54830549   0.00000
 -1.54327929     3.57407817   0.00000
 -1.84727810     3.59925138   0.00000
 -2.16510695     3.62354425   0.00000
 -2.49696174     3.64660326   0.00000
 -2.84348644     3.66805854   0.00000
 -3.20580886     3.68757388   0.00000
 -3.58559208     3.70491736   0.00000
  0.10232037     4.06443924   0.00000
 -0.10066754     4.09653089   0.00000
 -0.31977306     4.12694236   0.00000
 -0.55473519     4.15605752   0.00000
 -0.80495464     4.18439780   0.00000
 -1.06941653     4.21241135   0.00000
 -1.34692512     4.24031546   0.00000
 -1.63638847     4.26805862   0.00000
 -1.93702815     4.29536982   0.00000
 -2.24849160     4.32184222   0.00000
 -2.57088935     4.34701277   0.00000
 -2.90479001     4.37041831   0.00000
 -3.25120427     4.39162360   0.00000
 -3.61158435     4.41022786   0.00000
 -3.98786681     4.42587821   0.00000
 -0.20736133     4.86734968   0.00000
 -0.43579347     4.89655392   0.00000
 -0.67913510     4.92476173   0.00000
 -0.93636488     4.95275890   0.00000
 -1.20566791     4.98105074   0.00000
 -1.48514921     5.00970514   0.00000
 -1.77330197     5.03843390   0.00000
 -2.06920003     5.06675014   0.00000
 -2.37251357     5.09410854   0.00000
 -2.68343892     5.11999643   0.00000
 -3.00260244     5.14397477   0.00000
 -3.33097273     5.16567890   0.00000
 -3.66979997     5.18479013   0.00000
 -4.02059527     5.20098845   0.00000
 -4.38516666     5.21390299   0.00000
 -0.60776607     5.75213427   0.00000
 -0.86110055     5.77821930   0.00000
 -1.12658119     5.80511895   0.00000
 -1.40061324     5.83282735   0.00000
 -1.68048078     5.86086572   0.00000
 -1.96461465     5.88855994   0.00000
 -2.25242756     5.91525802   0.00000
 -2.54405217     5.94043773   0.00000
 -2.84010028     5.96373461   0.00000
 -3.14147551     5.98492453   0.00000
 -3.44923999     6.00388383   0.00000
 -3.76452587     6.02053945   0.00000
 -4.08848176     6.03481304   0.00000
 -4.42224790     6.04655727   0.00000
 -4.76696305     6.05547887   0.00000
 -1.12177456     6.72721629   0.00000
 -1.39521210     6.75254578   0.00000
 -1.67012091     6.77663463   0.00000
 -1.94434818     6.79918479   0.00000
 -2.21766554     6.81989781   0.00000
 -2.49079192     6.83861674   0.00000
 -2.76486208     6.85532124   0.00000
 -3.04114279     6.87008713   0.00000
 -3.32088344     6.88304427   0.00000
 -3.60523815     6.89434139   0.00000
 -3.89522302     6.90411846   0.00000
 -4.19168672     6.91248369   0.00000
 -4.49527914     6.91949095   0.00000
 -4.80640596     6.92511149   0.00000
 -5.12515674     6.92918901   0.00000
  0.04802600     0.10158424   0.00000
  0.05881609     0.11134253   0.00000
  0.06695462     0.11556170   0.00000
  0.07184885     0.11507970   0.00000
  0.07303087     0.11068016   0.00000
  0.07020634     0.10314515   0.00000
  0.06320419     0.09323849   0.00000
  0.05191152     0.08169286   0.00000
  0.03620608     0.06921834   0.00000
  0.01587654     0.05653862   0.00000
 -0.00949831     0.04447150   0.00000
 -0.04079131     0.03410278   0.00000
 -0.07988814     0.02724128   0.00000
 -0.13166417     0.02750020   0.00000
 -0.20808571     0.04653097   0.00000
  0.11708757     0.21656284   0.00000
  0.13715790     0.22887975   0.00000
  0.15060595     0.23380422   0.00000
  0.15646449     0.23226415   0.00000
  0.15413416     0.22535829   0.00000
  0.14327868     0.21425849   0.00000
  0.12369727     0.20016020   0.00000
  0.09519750     0.18428018   0.00000
  0.05745872     0.16790008   0.00000
  0.00985286     0.15246605   0.00000
 -0.04885037     0.13977393   0.00000
 -0.12105239     0.13230388   0.00000
 -0.21162955     0.13374214   0.00000
 -0.33052799     0.14982481   0.00000
 -0.50442852     0.18408868   0.00000
  0.20445585     0.34672341   0.00000
  0.22771019     0.36102800   0.00000
  0.23982629     0.36729098   0.00000
  0.23992550     0.36668216   0.00000
  0.22755640     0.36055467   0.00000
  0.20248045     0.35033908   0.00000
  0.16449711     0.33751680   0.00000
  0.11328018     0.32364174   0.00000
  0.04819531     0.31040064   0.00000
 -0.03194583     0.29970690   0.00000
 -0.12926431     0.29381140   0.00000
 -0.24744392     0.29534788   0.00000
 -0.39265993     0.30706385   0.00000
 -0.57521125     0.33002468   0.00000
 -0.80362555     0.35999185   0.00000
  0.30414716     0.50336095   0.00000
  0.32285376     0.52101398   0.00000
  0.32597537     0.53057875   0.00000
  0.31308391     0.53355012   0.00000
  0.28399541     0.53148210   0.00000
  0.23858283     0.52595823   0.00000
  0.17661388     0.51859432   0.00000
  0.09759595     0.51105899   0.00000
  0.00060558     0.50509570   0.00000
 -0.11591803     0.50251882   0.00000
 -0.25442237     0.50512667   0.00000
 -0.41846744     0.51442419   0.00000
 -0.61272394     0.53095574   0.00000
 -0.84118051     0.55349618   0.00000
 -1.10445635     0.57988149   0.00000
  0.40589228     0.70135701   0.00000
  0.41147028     0.72349557   0.00000
  0.39786427     0.73804279   0.00000
  0.36509658     0.74664570   0.00000
  0.31321754     0.75091645   0.00000
  0.24217881     0.75243033   0.00000
  0.15172209     0.75273096   0.00000
  0.04127708     0.75332495   0.00000
 -0.09013374     0.75564940   0.00000
 -0.24397045     0.76098994   0.00000
 -0.42218094     0.77032430   0.00000
 -0.62702259     0.78408393   0.00000
 -0.86039826     0.80196547   0.00000
 -1.12294226     0.82314428   0.00000
 -1.41351858     0.84671597   0.00000
  0.49663149     0.95505573   0.00000
  0.48102512     0.98199416   0.00000
  0.44386458     1.00219522   0.00000
  0.38547476     1.01724701   0.00000
  0.30605296     1.02864066   0.00000
  0.20561438     1.03777084   0.00000
  0.08394558     1.04592982   0.00000
 -0.05942630     1.05428280   0.00000
 -0.22523827     1.06381869   0.00000
 -0.41444674     1.07527686   0.00000
 -0.62809473     1.08906549   0.00000
 -0.86703996     1.10522437   0.00000
 -1.13162523     1.12351427   0.00000
 -1.42147307     1.14361551   0.00000
 -1.73552950     1.16542457   0.00000
  0.56229947     1.27600695   0.00000
  0.51903420     1.30714871   0.00000
  0.45314963     1.33255944   0.00000
  0.36510751     1.35359637   0.00000
  0.25518368     1.37149813   0.00000
  0.12347300     1.38737676   0.00000
 -0.03010386     1.40220624   0.00000
 -0.20577836     1.41679982   0.00000
 -0.40388779     1.43177997   0.00000
 -0.62479589     1.44755171   0.00000
 -0.86877986     1.46430017   0.00000
 -1.13591789     1.48203591   0.00000
 -1.42603088     1.50068974   0.00000
 -1.73871017     1.52024731   0.00000
 -2.07340756     1.54089962   0.00000
  0.58937487     1.67207169   0.00000
  0.51419541     1.70615284   0.00000
  0.41649116     1.73549655   0.00000
  0.29674875     1.76115293   0.00000
  0.15528989     1.78406709   0.00000
 -0.00769023     1.80506494   0.00000
 -0.19208990     1.82484318   0.00000
 -0.39786197     1.84395753   0.00000
 -0.62496654     1.86281263   0.00000
 -0.87332566     1.88166069   0.00000
 -1.14279908     1.90061877   0.00000
 -1.43319647     1.91971095   0.00000
 -1.74432792     1.93893533   0.00000
 -2.07607620     1.95834875   0.00000
 -2.42847447     1.97818606   0.00000
  0.56595647     2.14765818   0.00000
  0.45698086     2.18313335   0.00000
  0.32646664     2.21477211   0.00000
  0.17487729     2.24333255   0.00000
  0.00256885     2.26950583   0.00000
 -0.19016164     2.29389553   0.00000
 -0.40304244     2.31700890   0.00000
 -0.63579034     2.33924919   0.00000
 -0.88808955     2.36090405   0.00000
 -1.15960605     2.38213825   0.00000
 -1.45003942     2.40300234   0.00000
 -1.75919973     2.42346379   0.00000
 -2.08709168     2.44345947   0.00000
 -2.43399212     2.46296724   0.00000
 -2.80051912     2.48211587   0.00000
  0.48216697     2.70466467   0.00000
  0.33963431     2.74007341   0.00000
  0.17713806     2.77243683   0.00000
 -0.00488897     2.80230212   0.00000
 -0.20605951     2.83018544   0.00000
 -0.42599524     2.85655153   0.00000
 -0.66427119     2.88180557   0.00000
 -0.92038978     2.90626424   0.00000
 -1.19381845     2.93011978   0.00000
 -1.48407807     2.95342198   0.00000
 -1.79085094     2.97608992   0.00000
 -2.11408282     2.99795017   0.00000
 -2.45406674     3.01879241   0.00000
 -2.81150865     3.03843639   0.00000
 -3.18758882     3.05683296   0.00000
  0.32993255     3.34361783   0.00000
  0.15570972     3.37776736   0.00000
 -0.03659301     3.40960440   0.00000
 -0.24655809     3.43953721   0.00000
 -0.47380108     3.46798728   0.00000
 -0.71781602     3.49538169   0.00000
 -0.97791641     3.52208261   0.00000
 -1.25331569     3.54830549   0.00000
 -1.54327929     3.57407817   0.00000
 -1.84727810     3.59925138   0.00000
 -2.16510695     3.62354425   0.00000
 -2.49696174     3.64660326   0.00000
 -2.84348644     3.66805854   0.00000
 -3.20580886     3.68757388   0.00000
 -3.58559208     3.70491736   0.00000
  0.10232037     4.06443924   0.00000
 -0.10066754     4.09653089   0.00000
 -0.31977306     4.12694236   0.00000
 -0.55473519     4.15605752   0.00000
 -0.80495464     4.18439780   0.00000
 -1.06941653     4.21241135   0.00000
 -1.34692512     4.24031546   0.00000
 -1.63638847     4.26805862   0.00000
 -1.93702815     4.29536982   0.00000
 -2.24849160     4.32184222   0.00000
 -2.57088935     4.34701277   0.00000
 -2.90479001     4.37041831   0.00000
 -3.25120427     4.39162360   0.00000
 -3.61158435     4.41022786   0.00000
 -3.98786681     4.42587821   0.00000
 -0.20736133     4.86734968   0.00000
 -0.43579347     4.89655392   0.00000
 -0.67913510     4.92476173   0.00000
 -0.93636488     4.95275890   0.00000
 -1.20566791     4.98105074   0.00000
 -1.48514921     5.00970514   0.00000
 -1.77330197     5.03843390   0.00000
 -2.06920003     5.06675014   0.00000
 -2.37251357     5.09410854   0.00000
 -2.68343892     5.11999643   0.00000
 -3.00260244     5.14397477   0.00000
 -3.33097273     5.16567890   0.00000
 -3.66979997     5.18479013   0.00000
 -4.02059527     5.20098845   0.00000
 -4.38516666     5.21390299   0.00000
 -0.60776607     5.75213427   0.00000
 -0.86110055     5.77821930   0.00000
 -1.12658119     5.80511895   0.00000
 -1.40061324     5.83282735   0.00000
 -1.68048078     5.86086572   0.00000
 -1.96461465     5.88855994   0.00000
 -2.25242756     5.91525802   0.00000
 -2.54405217     5.94043773   0.00000
 -2.84010028     5.96373461   0.00000
 -3.14147551     5.98492453   0.00000
 -3.44923999     6.00388383   0.00000
 -3.76452587     6.02053945   0.00000
 -4.08848176     6.03481304   0.00000
 -4.42224790     6.04655727   0.00000
 -4.76696305     6.05547887   0.00000
 -1.12177456     6.72721629   0.00000
 -1.39521210     6.75254578   0.00000
 -1.67012091     6.77663463   0.00000
 -1.94434818     6.79918479   0.00000
 -2.21766554     6.81989781   0.00000
 -2.49079192     6.83861674   0.00000
 -2.76486208     6.85532124   0.00000
 -3.04114279     6.87008713   0.00000
 -3.32088344     6.88304427   0.00000
 -3.60523815     6.89434139   0.00000
 -3.89522302     6.90411846   0.00000
 -4.19168672     6.91248369   0.00000
 -4.49527914     6.91949095   0.00000
 -4.80640596     6.92511149   0.00000
 -5.12515674     6.92918901   0.00000
</DataArray> 
 <DataArray  type="Float64"  Name="stress" NumberOfComponents="3" format="ascii"> 
  3.73940950     1.95785521     1.05370711   
  8.28600392     4.83010289     0.72070860   
 -0.78739427    -0.05317632     0.04041561   
-32.07677615   -10.94605247    -9.95194597   
  3.73940950     1.95785521     1.05370711   
  8.28600392     4.83010289     0.72070860   
 -0.78739427    -0.05317632     0.04041561   
-32.07677615   -10.94605247    -9.95194597   
  3.85749332     2.60452254     0.21015752   
  4.80058999     3.41063010    -0.03172981   
  5.85685004     4.16637768     0.00579512   
  7.04998005     5.07197149     0.06654607   
  8.28195627     6.08357110     0.14100232   
  9.42578844     7.09524682     0.21846442   
 10.38092736     8.00075280     0.28932659   
 11.08919659     8.72237134     0.34842676   
 11.53660475     9.22324812     0.39472566   
 11.74076134     9.50406377     0.43046424   
 11.73252093     9.58685462     0.45963955   
 11.53552840     9.49837614     0.48568385   
 11.18019279     9.24559408     0.52048596   
 10.63035479     8.84930242     0.59021220   
  9.43802636     8.03069087     0.78228121   
  5.58308114     3.76603304     0.08498370   
  2.63606434     2.64652317    -0.32792293   
  0.93411033     2.02071337    -0.34567099   
 -0.03358465     1.61926053    -0.27119972   
 -0.57137504     1.33000661    -0.19261157   
 -0.86196318     1.10337007    -0.12913449   
 -1.01478796     0.91559150    -0.08120708   
 -1.09424546     0.75424604    -0.04564512   
 -1.13659065     0.61223044    -0.01948217   
 -1.16017164     0.48507324    -0.00060905   
 -1.17146707     0.36962996     0.01231426   
 -1.16824909     0.26339611     0.02005870   
 -1.14047974     0.16413210     0.02317416   
 -1.06883106     0.06978784     0.02320095   
 -0.91916324    -0.02072596     0.02777574   
 -1.79121760    -0.01228055     0.00258387   
 -4.18200012    -0.14580184    -0.10678232   
 -6.94658279    -0.43116498    -0.21667785   
 -9.46794334    -0.76943235    -0.29834929   
-11.46862946    -1.08377867    -0.34145273   
-12.91984650    -1.33836028    -0.35360725   
-13.91033872    -1.52678524    -0.34571131   
-14.56245685    -1.65725014    -0.32634408   
-14.99750100    -1.74222587    -0.30098233   
-15.33206631    -1.79370729    -0.27277181   
-15.68970226    -1.82275929    -0.24325575   
-16.23641307    -1.84044926    -0.21142055   
-17.23139861    -1.89080344    -0.18892893   
-19.52468455    -2.10139272    -0.07014044   
-23.86946538    -3.58445381    -1.32118446   
-21.42329513    -7.16897336    -6.22500927   
-13.00890103    -4.69200380    -3.62524158   
 -7.77983805    -3.07849716    -2.14154270   
 -3.81424247    -1.72097046    -1.03433451   
 -0.64513373    -0.58652574    -0.15367963   
  1.91741504     0.35990798     0.55765299   
  3.95762622     1.13540163     1.12341695   
  5.51614125     1.74990544     1.55479992   
  6.61388601     2.20973802     1.85749110   
  7.26438536     2.52021405     2.03521684   
  7.48209880     2.68773226     2.09207802   
  7.28964029     2.72178963     2.03457143   
  6.72437437     2.63711879     1.87341941   
  5.84113391     2.45576471     1.62439374   
  4.67376417     2.20467452     1.30570533   
  3.85749332     2.60452254     0.21015752   
  4.80058999     3.41063010    -0.03172981   
  5.85685004     4.16637768     0.00579512   
  7.04998005     5.07197149     0.06654607   
  8.28195627     6.08357110     0.14100232   
  9.42578844     7.09524682     0.21846442   
 10.38092736     8.00075280     0.28932659   
 11.08919659     8.72237134     0.34842676   
 11.53660475     9.22324812     0.39472566   
 11.74076134     9.50406377     0.43046424   
 11.73252093     9.58685462     0.45963955   
 11.53552840     9.49837614     0.48568385   
 11.18019279     9.24559408     0.52048596   
 10.63035479     8.84930242     0.59021220   
  9.43802636     8.03069087     0.78228121   
  5.58308114     3.76603304     0.08498370   
  2.63606434     2.64652317    -0.32792293   
  0.93411033     2.02071337    -0.34567099   
 -0.03358465     1.61926053    -0.27119972   
 -0.57137504     1.33000661    -0.19261157   
 -0.86196318     1.10337007    -0.12913449   
 -1.01478796     0.91559150    -0.08120708   
 -1.09424546     0.75424604    -0.04564512   
 -1.13659065     0.61223044    -0.01948217   
 -1.16017164     0.48507324    -0.00060905   
 -1.17146707     0.36962996     0.01231426   
 -1.16824909     0.26339611     0.02005870   
 -1.14047974     0.16413210     0.02317416   
 -1.06883106     0.06978784     0.02320095   
 -0.91916324    -0.02072596     0.02777574   
 -1.79121760    -0.01228055     0.00258387   
 -4.18200012    -0.14580184    -0.10678232   
 -6.94658279    -0.43116498    -0.21667785   
 -9.46794334    -0.76943235    -0.29834929   
-11.46862946    -1.08377867    -0.34145273   
-12.91984650    -1.33836028    -0.35360725   
-13.91033872    -1.52678524    -0.34571131   
-14.56245685    -1.65725014    -0.32634408   
-14.99750100    -1.74222587    -0.30098233   
-15.33206631    -1.79370729    -0.27277181   
-15.68970226    -1.82275929    -0.24325575   
-16.23641307    -1.84044926    -0.21142055   
-17.23139861    -1.89080344    -0.18892893   
-19.52468455    -2.10139272    -0.07014044   
-23.86946538    -3.58445381    -1.32118446   
-21.42329513    -7.16897336    -6.22500927   
-13.00890103    -4.69200380    -3.62524158   
 -7.77983805    -3.07849716    -2.14154270   
 -3.81424247    -1.72097046    -1.03433451   
 -0.64513373    -0.58652574    -0.15367963   
  1.91741504     0.35990798     0.55765299   
  3.95762622     1.13540163     1.12341695   
  5.51614125     1.74990544     1.55479992   
  6.61388601     2.20973802     1.85749110   
  7.26438536     2.52021405     2.03521684   
  7.48209880     2.68773226     2.09207802   
  7.28964029     2.72178963     2.03457143   
  6.72437437     2.63711879     1.87341941   
  5.84113391     2.45576471     1.62439374   
  4.67376417     2.20467452     1.30570533   
  4.66539183     2.56318394     0.21403318   
  5.71372991     2.36357471     0.23121729   
  6.49094439     2.16966349     0.25718278   
  6.95615866     1.94643324     0.27238100   
  7.06298629     1.67948831     0.27453790   
  6.78101131     1.35942691     0.26221872   
  6.09194964     0.97929121     0.23450528   
  4.98344547     0.53417976     0.19075256   
  3.44252638     0.02157103     0.13031518   
  1.44815711    -0.55759494     0.05221460   
 -1.03904451    -1.19592320    -0.04538583   
 -4.09423693    -1.87056512    -0.16620095   
 -7.85632176    -2.51941042    -0.31765049   
-12.60034743    -2.92260655    -0.52336324   
-18.27935001    -2.82388853    -0.67733683   
  5.53846265     3.25267556    -0.01129449   
  6.49729179     2.79736729    -0.01732391   
  7.14884979     2.32776173    -0.02005050   
  7.43835364     1.85076407    -0.02211227   
  7.33625313     1.36740358    -0.02311294   
  6.82681509     0.87709807    -0.02293947   
  5.90159977     0.37945835    -0.02151366   
  4.55383805    -0.12340246    -0.01879649   
  2.77342566    -0.62400251    -0.01476039   
  0.54224001    -1.10521043    -0.00933180   
 -2.16987381    -1.53296750    -0.00224345   
 -5.40432413    -1.84499497     0.00748043   
 -9.19581489    -1.93681893     0.02153420   
-13.42576129    -1.75259889     0.05543518   
-17.42831283    -1.79099078     0.05099465   
  6.45404987     3.89433043     0.01006579   
  7.21931086     3.25893034     0.00223586   
  7.62693010     2.62188487     0.00132476   
  7.65048567     2.00063840     0.00142523   
  7.27977382     1.40364114     0.00155369   
  6.51284674     0.83604192     0.00157837   
  5.35061660     0.30348091     0.00148150   
  3.79368883    -0.18494098     0.00127937   
  1.84091090    -0.61396585     0.00103368   
 -0.50957177    -0.95988349     0.00088742   
 -3.25371130    -1.19062918     0.00112349   
 -6.36195112    -1.27531302     0.00195468   
 -9.72190367    -1.23056335     0.00427339   
-13.03147729    -1.23422461    -0.00176612   
-15.69695034    -1.49810885    -0.02837191   
  7.38577573     4.65558210     0.01615253   
  7.88729233     3.86729247     0.00160378   
  8.00256441     3.11597367    -0.00018722   
  7.73403953     2.41215914    -0.00042398   
  7.08948692     1.76260207    -0.00046243   
  6.07857156     1.17288024    -0.00045600   
  4.71145083     0.64955905    -0.00040410   
  2.99897663     0.20132943    -0.00027170   
  0.95497719    -0.16126470    -0.00000612   
 -1.39808972    -0.42876896     0.00044144   
 -4.01769625    -0.60113664     0.00101718   
 -6.81989753    -0.70588245     0.00154904   
 -9.65260054    -0.82172803     0.00020105   
-12.29230350    -1.04586240    -0.00163255   
-14.60085576    -1.40869645    -0.02572622   
  8.27186534     5.52917965     0.02505315   
  8.44406163     4.63045042     0.00300816   
  8.24188179     3.80606118     0.00015288   
  7.68420800     3.05708508    -0.00019187   
  6.78984519     2.38474143    -0.00019080   
  5.57695036     1.79044484    -0.00011866   
  4.06414075     1.27573343    -0.00000099   
  2.27279215     0.84122599     0.00016538   
  0.23078392     0.48413942     0.00036885   
 -2.02196387     0.19392504     0.00054943   
 -4.42640248    -0.05369629     0.00058577   
 -6.89960621    -0.30027139     0.00012419   
 -9.34303364    -0.59235223    -0.00053382   
-11.68744440    -0.95554163    -0.00124741   
-13.94782259    -1.36829749    -0.03112329   
  9.04506755     6.43055833     0.03551194   
  8.86458648     5.47121158     0.00483586   
  8.35419572     4.60904297     0.00052475   
  7.53856052     3.83714999    -0.00003894   
  6.44101858     3.15067058    -0.00005407   
  5.08416852     2.54496263     0.00002371   
  3.49179709     2.01428651     0.00012420   
  1.69125842     1.55013741     0.00022168   
 -0.28399875     1.13927323     0.00028030   
 -2.39245101     0.76209117     0.00024927   
 -4.58501879     0.39312763     0.00005854   
 -6.81148642     0.00667467    -0.00020822   
 -9.03671413    -0.41342908    -0.00040180   
-11.25884755    -0.86468392    -0.00148768   
-13.52246586    -1.31659218    -0.03875095   
  9.65829054     7.26293730     0.04714869   
  9.14553659     6.28803498     0.00729053   
  8.36565783     5.41529481     0.00108237   
  7.34153369     4.63292034     0.00015253   
  6.09576799     3.93166287     0.00006111   
  4.65097579     3.30226198     0.00009949   
  3.03117826     2.73407441     0.00014452   
  1.26302648     2.21406492     0.00016010   
 -0.62369372     1.72638484     0.00012353   
 -2.59716419     1.25316545     0.00002293   
 -4.62735711     0.77724262    -0.00010811   
 -6.69306013     0.28641308    -0.00021109   
 -8.78963142    -0.22230774    -0.00032565   
-10.93409696    -0.73976848    -0.00249768   
-13.17245913    -1.23787307    -0.04802526   
 10.08921828     7.94779369     0.05967359   
  9.29713668     6.99101216     0.01042258   
  8.30341805     6.12749373     0.00183364   
  7.12500218     5.34402550     0.00035467   
  5.78026591     4.62997802     0.00012574   
  4.28830070     3.97476087     0.00010856   
  2.66931047     3.36684351     0.00010594   
  0.94493557     2.79341022     0.00007222   
 -0.86219014     2.24061793     0.00000165   
 -2.73039106     1.69475248    -0.00008616   
 -4.64258405     1.14428776    -0.00016199   
 -6.59062649     0.58233160    -0.00021771   
 -8.57899164     0.00878509    -0.00046422   
-10.62745598    -0.56773072    -0.00416533   
-12.78050457    -1.12291512    -0.05871531   
 10.33736487     8.44140089     0.07303190   
  9.33274794     7.52438727     0.01435274   
  8.18254751     6.68544666     0.00287269   
  6.89656173     5.91275487     0.00061474   
  5.48760538     5.19707286     0.00018937   
  3.96955878     4.52924153     0.00011214   
  2.35775152     3.89940838     0.00006375   
  0.66963421     3.29648552    -0.00001568   
 -1.07580254     2.70819039    -0.00011315   
 -2.86044372     2.12215032    -0.00020058   
 -4.67061313     1.52782813    -0.00026220   
 -6.50063842     0.91861053    -0.00033078   
 -8.35571653     0.29359339    -0.00082781   
-10.25474863    -0.34059449    -0.00654068   
-12.24130818    -0.96320197    -0.07024040   
 10.41430464     8.73564083     0.08758218   
  9.25973882     7.87108232     0.01936424   
  7.99992923     7.07050903     0.00431676   
  6.63855950     6.32497152     0.00104237   
  5.18229224     5.62792577     0.00035605   
  3.64049947     4.97295317     0.00014972   
  2.02758615     4.35159333    -0.00002818   
  0.36354532     3.75208939    -0.00021396   
 -1.32867564     3.16025565    -0.00036449   
 -3.02765048     2.56187225    -0.00045337   
 -4.71785643     1.94529621    -0.00049081   
 -6.39283806     1.30338085    -0.00057390   
 -8.05713361     0.63454793    -0.00144679   
 -9.72840641    -0.05619851    -0.00958717   
-11.44831411    -0.75214652    -0.08126351   
 10.33210561     8.84483694     0.10365694   
  9.07396447     8.04111976     0.02549400   
  7.73497017     7.29278902     0.00662390   
  6.30962264     6.59404703     0.00206429   
  4.79974179     5.94294872     0.00071230   
  3.21865599     5.33382868    -0.00001076   
  1.59208996     4.75396604    -0.00052914   
 -0.04722383     4.18557030    -0.00084251   
 -1.66720610     3.61017132    -0.00095412   
 -3.24258341     3.01245986    -0.00091950   
 -4.75812907     2.38227831    -0.00082810   
 -6.20933952     1.71482170    -0.00089018   
 -7.60174943     1.00979950    -0.00225624   
 -8.95107251     0.27078343    -0.01292020   
-10.29220085    -0.49201883    -0.08900191   
 10.09539684     8.78985493     0.12243760   
  8.76059818     8.05105078     0.03547856   
  7.33827558     7.36730138     0.01105987   
  5.81877156     6.74291608     0.00317628   
  4.21908367     6.17256653    -0.00016317   
  2.58056491     5.63739553    -0.00173547   
  0.95414422     5.11216680    -0.00226594   
 -0.61409461     4.57371570    -0.00216366   
 -2.09094967     4.00581154    -0.00175970   
 -3.45794041     3.40007953    -0.00129099   
 -4.70919408     2.75434192    -0.00092589   
 -5.84758059     2.06983261    -0.00096448   
 -6.88077033     1.34833501    -0.00289874   
 -7.81908271     0.59006450    -0.01541394   
 -8.68113523    -0.20608399    -0.08866095   
  9.69699914     8.56575873     0.14916480   
  8.23395886     7.89779809     0.04576587   
  6.64222605     7.31592980     0.01151228   
  4.95419741     6.79846176    -0.00100589   
  3.24841996     6.30996197    -0.00497249   
  1.60604292     5.81612607    -0.00509839   
  0.08658825     5.29422424    -0.00375546   
 -1.27735728     4.73486548    -0.00218047   
 -2.47565184     4.13883984    -0.00090015   
 -3.51282768     3.51246547    -0.00005443   
 -4.40031391     2.86322311     0.00033944   
 -5.14985739     2.19623637     0.00004923   
 -5.76836417     1.51150129    -0.00245681   
 -6.25447396     0.80155016    -0.01492270   
 -6.59972615     0.04944168    -0.07428808   
  8.92689273     8.18948120     0.17774728   
  7.16137777     7.61645015     0.05928271   
  5.28394616     7.08048103     0.01169650   
  3.46469336     6.54904158    -0.00327428   
  1.82187197     5.99696113    -0.00462106   
  0.40865134     5.41740412    -0.00210119   
 -0.76817764     4.81669741     0.00031787   
 -1.72760934     4.20699626     0.00163429   
 -2.49898551     3.60081937     0.00198260   
 -3.11190494     3.00779872     0.00174426   
 -3.59000262     2.43295789     0.00118928   
 -3.94697324     1.87569137     0.00023350   
 -4.18344513     1.32867004    -0.00224557   
 -4.28364311     0.77585896    -0.01106287   
 -4.21147738     0.18844748    -0.04466859   
  7.32580526     7.13858711     0.29041668   
  5.03428620     6.19260847     0.06053408   
  3.09487208     5.41270023    -0.00017714   
  1.57485368     4.72298188    -0.00123786   
  0.43197362     4.09511364     0.00968225   
 -0.40686046     3.52068137     0.01827200   
 -1.01432392     2.99758818     0.02281964   
 -1.45141220     2.52441382     0.02478449   
 -1.76453287     2.09849691     0.02563275   
 -1.98586816     1.71549655     0.02616471   
 -2.13464586     1.36935687     0.02656118   
 -2.21811437     1.05214253     0.02648839   
 -2.23146498     0.75339544     0.02503477   
 -2.15591861     0.45856280     0.02041049   
 -1.95338155     0.14541327     0.00981095   
  4.66539183     2.56318394     0.21403318   
  5.71372991     2.36357471     0.23121729   
  6.49094439     2.16966349     0.25718278   
  6.95615866     1.94643324     0.27238100   
  7.06298629     1.67948831     0.27453790   
  6.78101131     1.35942691     0.26221872   
  6.09194964     0.97929121     0.23450528   
  4.98344547     0.53417976     0.19075256   
  3.44252638     0.02157103     0.13031518   
  1.44815711    -0.55759494     0.05221460   
 -1.03904451    -1.19592320    -0.04538583   
 -4.09423693    -1.87056512    -0.16620095   
 -7.85632176    -2.51941042    -0.31765049   
-12.60034743    -2.92260655    -0.52336324   
-18.27935001    -2.82388853    -0.67733683   
  5.53846265     3.25267556    -0.01129449   
  6.49729179     2.79736729    -0.01732391   
  7.14884979     2.32776173    -0.02005050   
  7.43835364     1.85076407    -0.02211227   
  7.33625313     1.36740358    -0.02311294   
  6.82681509     0.87709807    -0.02293947   
  5.90159977     0.37945835    -0.02151366   
  4.55383805    -0.12340246    -0.01879649   
  2.77342566    -0.62400251    -0.01476039   
  0.54224001    -1.10521043    -0.00933180   
 -2.16987381    -1.53296750    -0.00224345   
 -5.40432413    -1.84499497     0.00748043   
 -9.19581489    -1.93681893     0.02153420   
-13.42576129    -1.75259889     0.05543518   
-17.42831283    -1.79099078     0.05099465   
  6.45404987     3.89433043     0.01006579   
  7.21931086     3.25893034     0.00223586   
  7.62693010     2.62188487     0.00132476   
  7.65048567     2.00063840     0.00142523   
  7.27977382     1.40364114     0.00155369   
  6.51284674     0.83604192     0.00157837   
  5.35061660     0.30348091     0.00148150   
  3.79368883    -0.18494098     0.00127937   
  1.84091090    -0.61396585     0.00103368   
 -0.50957177    -0.95988349     0.00088742   
 -3.25371130    -1.19062918     0.00112349   
 -6.36195112    -1.27531302     0.00195468   
 -9.72190367    -1.23056335     0.00427339   
-13.03147729    -1.23422461    -0.00176612   
-15.69695034    -1.49810885    -0.02837191   
  7.38577573     4.65558210     0.01615253   
  7.88729233     3.86729247     0.00160378   
  8.00256441     3.11597367    -0.00018722   
  7.73403953     2.41215914    -0.00042398   
  7.08948692     1.76260207    -0.00046243   
  6.07857156     1.17288024    -0.00045600   
  4.71145083     0.64955905    -0.00040410   
  2.99897663     0.20132943    -0.00027170   
  0.95497719    -0.16126470    -0.00000612   
 -1.39808972    -0.42876896     0.00044144   
 -4.01769625    -0.60113664     0.00101718   
 -6.81989753    -0.70588245     0.00154904   
 -9.65260054    -0.82172803     0.00020105   
-12.29230350    -1.04586240    -0.00163255   
-14.60085576    -1.40869645    -0.02572622   
  8.27186534     5.52917965     0.02505315   
  8.44406163     4.63045042     0.00300816   
  8.24188179     3.80606118     0.00015288   
  7.68420800     3.05708508    -0.00019187   
  6.78984519     2.38474143    -0.00019080   
  5.57695036     1.79044484    -0.00011866   
  4.06414075     1.27573343    -0.00000099   
  2.27279215     0.84122599     0.00016538   
  0.23078392     0.48413942     0.00036885   
 -2.02196387     0.19392504     0.00054943   
 -4.42640248    -0.05369629     0.00058577   
 -6.89960621    -0.30027139     0.00012419   
 -9.34303364    -0.59235223    -0.00053382   
-11.68744440    -0.95554163    -0.00124741   
-13.94782259    -1.36829749    -0.03112329   
  9.04506755     6.43055833     0.03551194   
  8.86458648     5.47121158     0.00483586   
  8.35419572     4.60904297     0.00052475   
  7.53856052     3.83714999    -0.00003894   
  6.44101858     3.15067058    -0.00005407   
  5.08416852     2.54496263     0.00002371   
  3.49179709     2.01428651     0.00012420   
  1.69125842     1.55013741     0.00022168   
 -0.28399875     1.13927323     0.00028030   
 -2.39245101     0.76209117     0.00024927   
 -4.58501879     0.39312763     0.00005854   
 -6.81148642     0.00667467    -0.00020822   
 -9.03671413    -0.41342908    -0.00040180   
-11.25884755    -0.86468392    -0.00148768   
-13.52246586    -1.31659218    -0.03875095   
  9.65829054     7.26293730     0.04714869   
  9.14553659     6.28803498     0.00729053   
  8.36565783     5.41529481     0.00108237   
  7.34153369     4.63292034     0.00015253   
  6.09576799     3.93166287     0.00006111   
  4.65097579     3.30226198     0.00009949   
  3.03117826     2.73407441     0.00014452   
  1.26302648     2.21406492     0.00016010   
 -0.62369372     1.72638484     0.00012353   
 -2.59716419     1.25316545     0.00002293   
 -4.62735711     0.77724262    -0.00010811   
 -6.69306013     0.28641308    -0.00021109   
 -8.78963142    -0.22230774    -0.00032565   
-10.93409696    -0.73976848    -0.00249768   
-13.17245913    -1.23787307    -0.04802526   
 10.08921828     7.94779369     0.05967359   
  9.29713668     6.99101216     0.01042258   
  8.30341805     6.12749373     0.00183364   
  7.12500218     5.34402550     0.00035467   
  5.78026591     4.62997802     0.00012574   
  4.28830070     3.97476087     0.00010856   
  2.66931047     3.36684351     0.00010594   
  0.94493557     2.79341022     0.00007222   
 -0.86219014     2.24061793     0.00000165   
 -2.73039106     1.69475248    -0.00008616   
 -4.64258405     1.14428776    -0.00016199   
 -6.59062649     0.58233160    -0.00021771   
 -8.57899164     0.00878509    -0.00046422   
-10.62745598    -0.56773072    -0.00416533   
-12.78050457    -1.12291512    -0.05871531   
 10.33736487     8.44140089     0.07303190   
  9.33274794     7.52438727     0.01435274   
  8.18254751     6.68544666     0.00287269   
  6.89656173     5.91275487     0.00061474   
  5.48760538     5.19707286     0.00018937   
  3.96955878     4.52924153     0.00011214   
  2.35775152     3.89940838     0.00006375   
  0.66963421     3.29648552    -0.00001568   
 -1.07580254     2.70819039    -0.00011315   
 -2.86044372     2.12215032    -0.00020058   
 -4.67061313     1.52782813    -0.00026220   
 -6.50063842     0.91861053    -0.00033078   
 -8.35571653     0.29359339    -0.00082781   
-10.25474863    -0.34059449    -0.00654068   
-12.24130818    -0.96320197    -0.07024040   
 10.41430464     8.73564083     0.08758218   
  9.25973882     7.87108232     0.01936424   
  7.99992923     7.07050903     0.00431676   
  6.63855950     6.32497152     0.00104237   
  5.18229224     5.62792577     0.00035605   
  3.64049947     4.97295317     0.00014972   
  2.02758615     4.35159333    -0.00002818   
  0.36354532     3.75208939    -0.00021396   
 -1.32867564     3.16025565    -0.00036449   
 -3.02765048     2.56187225    -0.00045337   
 -4.71785643     1.94529621    -0.00049081   
 -6.39283806     1.30338085    -0.00057390   
 -8.05713361     0.63454793    -0.00144679   
 -9.72840641    -0.05619851    -0.00958717   
-11.44831411    -0.75214652    -0.08126351   
 10.33210561     8.84483694     0.10365694   
  9.07396447     8.04111976     0.02549400   
  7.73497017     7.29278902     0.00662390   
  6.30962264     6.59404703     0.00206429   
  4.79974179     5.94294872     0.00071230   
  3.21865599     5.33382868    -0.00001076   
  1.59208996     4.75396604    -0.00052914   
 -0.04722383     4.18557030    -0.00084251   
 -1.66720610     3.61017132    -0.00095412   
 -3.24258341     3.01245986    -0.00091950   
 -4.75812907     2.38227831    -0.00082810   
 -6.20933952     1.71482170    -0.00089018   
 -7.60174943     1.00979950    -0.00225624   
 -8.95107251     0.27078343    -0.01292020   
-10.29220085    -0.49201883    -0.08900191   
 10.09539684     8.78985493     0.12243760   
  8.76059818     8.05105078     0.03547856   
  7.33827558     7.36730138     0.01105987   
  5.81877156     6.74291608     0.00317628   
  4.21908367     6.17256653    -0.00016317   
  2.58056491     5.63739553    -0.00173547   
  0.95414422     5.11216680    -0.00226594   
 -0.61409461     4.57371570    -0.00216366   
 -2.09094967     4.00581154    -0.00175970   
 -3.45794041     3.40007953    -0.00129099   
 -4.70919408     2.75434192    -0.00092589   
 -5.84758059     2.06983261    -0.00096448   
 -6.88077033     1.34833501    -0.00289874   
 -7.81908271     0.59006450    -0.01541394   
 -8.68113523    -0.20608399    -0.08866095   
  9.69699914     8.56575873     0.14916480   
  8.23395886     7.89779809     0.04576587   
  6.64222605     7.31592980     0.01151228   
  4.95419741     6.79846176    -0.00100589   
  3.24841996     6.30996197    -0.00497249   
  1.60604292     5.81612607    -0.00509839   
  0.08658825     5.29422424    -0.00375546   
 -1.27735728     4.73486548    -0.00218047   
 -2.47565184     4.13883984    -0.00090015   
 -3.51282768     3.51246547    -0.00005443   
 -4.40031391     2.86322311     0.00033944   
 -5.14985739     2.19623637     0.00004923   
 -5.76836417     1.51150129    -0.00245681   
 -6.25447396     0.80155016    -0.01492270   
 -6.59972615     0.04944168    -0.07428808   
  8.92689273     8.18948120     0.17774728   
  7.16137777     7.61645015     0.05928271   
  5.28394616     7.08048103     0.01169650   
  3.46469336     6.54904158    -0.00327428   
  1.82187197     5.99696113    -0.00462106   
  0.40865134     5.41740412    -0.00210119   
 -0.76817764     4.81669741     0.00031787   
 -1.72760934     4.20699626     0.00163429   
 -2.49898551     3.60081937     0.00198260   
 -3.11190494     3.00779872     0.00174426   
 -3.59000262     2.43295789     0.00118928   
 -3.94697324     1.87569137     0.00023350   
 -4.18344513     1.32867004    -0.00224557   
 -4.28364311     0.77585896    -0.01106287   
 -4.21147738     0.18844748    -0.04466859   
  7.32580526     7.13858711     0.29041668   
  5.03428620     6.19260847     0.06053408   
  3.09487208     5.41270023    -0.00017714   
  1.57485368     4.72298188    -0.00123786   
  0.43197362     4.09511364     0.00968225   
 -0.40686046     3.52068137     0.01827200   
 -1.01432392     2.99758818     0.02281964   
 -1.45141220     2.52441382     0.02478449   
 -1.76453287     2.09849691     0.02563275   
 -1.98586816     1.71549655     0.02616471   
 -2.13464586     1.36935687     0.02656118   
 -2.21811437     1.05214253     0.02648839   
 -2.23146498     0.75339544     0.02503477   
 -2.15591861     0.45856280     0.02041049   
 -1.95338155     0.14541327     0.00981095   
</DataArray> 
 <DataArray  type="Float64"  Name="strain" NumberOfComponents="3" format="ascii"> 
  0.01134376     0.00207968    -0.00262189   
  0.02648304     0.00851236    -0.01285649   
 -0.00313426     0.00068367     0.00117035   
 -0.10322951     0.00665026     0.01181961   
  0.01134376     0.00207968    -0.00262189   
  0.02648304     0.00851236    -0.01285649   
 -0.00313426     0.00068367     0.00117035   
 -0.10322951     0.00665026     0.01181961   
  0.01205236     0.00553691    -0.00691379   
  0.01514768     0.00791989    -0.00998038   
  0.01842079     0.00963034    -0.01200469   
  0.02203370     0.01174805    -0.01428016   
  0.02565834     0.01422673    -0.01667462   
  0.02892670     0.01680788    -0.01895138   
  0.03157561     0.01919871    -0.02090071   
  0.03347183     0.02116434    -0.02238017   
  0.03460485     0.02257540    -0.02333292   
  0.03504161     0.02341078    -0.02377193   
  0.03487429     0.02371683    -0.02374469   
  0.03416124     0.02356805    -0.02329795   
  0.03300148     0.02294156    -0.02242900   
  0.03119400     0.02193253    -0.02101474   
  0.02717654     0.01985839    -0.01783334   
  0.01771110     0.00826245    -0.01087900   
  0.00776194     0.00781632    -0.00765080   
  0.00172639     0.00737673    -0.00492847   
 -0.00175201     0.00684278    -0.00298761   
 -0.00365037     0.00623681    -0.00168080   
 -0.00461694     0.00560280    -0.00080623   
 -0.00506041     0.00497756    -0.00020579   
 -0.00522730     0.00438485     0.00022542   
 -0.00525766     0.00383621     0.00055130   
 -0.00522204     0.00333323     0.00080768   
 -0.00514420     0.00286950     0.00101146   
 -0.00501314     0.00243141     0.00116606   
 -0.00478669     0.00199730     0.00126431   
 -0.00438691     0.00153391     0.00129166   
 -0.00368511     0.00098676     0.00123897   
 -0.00715323     0.00209724     0.00217453   
 -0.01642490     0.00456333     0.00476623   
 -0.02700892     0.00687125     0.00798659   
 -0.03659044     0.00864182     0.01109145   
 -0.04416424     0.00983698     0.01369708   
 -0.04964902     0.01057470     0.01569542   
 -0.05339436     0.01100012     0.01714170   
 -0.05586951     0.01123756     0.01815827   
 -0.05753815     0.01138928     0.01888374   
 -0.05884849     0.01155098     0.01945984   
 -0.06027959     0.01182851     0.02004193   
 -0.06248341     0.01237560     0.02084655   
 -0.06642992     0.01334118     0.02219093   
 -0.07549290     0.01510822     0.02567073   
 -0.08959110     0.01589096     0.02765997   
 -0.06962040     0.00450207     0.00941069   
 -0.04205491     0.00119296     0.00674012   
 -0.02485530    -0.00040833     0.00446383   
 -0.01195060    -0.00106559     0.00250492   
 -0.00169229    -0.00138753     0.00086327   
  0.00656859    -0.00153045    -0.00050218   
  0.01311992    -0.00155565    -0.00161797   
  0.01809892    -0.00148551    -0.00250006   
  0.02157487    -0.00132670    -0.00315838   
  0.02359102    -0.00107867    -0.00360065   
  0.02419262    -0.00073808    -0.00383549   
  0.02345093    -0.00030190    -0.00387543   
  0.02148485     0.00023112    -0.00374011   
  0.01846835     0.00086443    -0.00345870   
  0.01448260     0.00164333    -0.00303131   
  0.01205236     0.00553691    -0.00691379   
  0.01514768     0.00791989    -0.00998038   
  0.01842079     0.00963034    -0.01200469   
  0.02203370     0.01174805    -0.01428016   
  0.02565834     0.01422673    -0.01667462   
  0.02892670     0.01680788    -0.01895138   
  0.03157561     0.01919871    -0.02090071   
  0.03347183     0.02116434    -0.02238017   
  0.03460485     0.02257540    -0.02333292   
  0.03504161     0.02341078    -0.02377193   
  0.03487429     0.02371683    -0.02374469   
  0.03416124     0.02356805    -0.02329795   
  0.03300148     0.02294156    -0.02242900   
  0.03119400     0.02193253    -0.02101474   
  0.02717654     0.01985839    -0.01783334   
  0.01771110     0.00826245    -0.01087900   
  0.00776194     0.00781632    -0.00765080   
  0.00172639     0.00737673    -0.00492847   
 -0.00175201     0.00684278    -0.00298761   
 -0.00365037     0.00623681    -0.00168080   
 -0.00461694     0.00560280    -0.00080623   
 -0.00506041     0.00497756    -0.00020579   
 -0.00522730     0.00438485     0.00022542   
 -0.00525766     0.00383621     0.00055130   
 -0.00522204     0.00333323     0.00080768   
 -0.00514420     0.00286950     0.00101146   
 -0.00501314     0.00243141     0.00116606   
 -0.00478669     0.00199730     0.00126431   
 -0.00438691     0.00153391     0.00129166   
 -0.00368511     0.00098676     0.00123897   
 -0.00715323     0.00209724     0.00217453   
 -0.01642490     0.00456333     0.00476623   
 -0.02700892     0.00687125     0.00798659   
 -0.03659044     0.00864182     0.01109145   
 -0.04416424     0.00983698     0.01369708   
 -0.04964902     0.01057470     0.01569542   
 -0.05339436     0.01100012     0.01714170   
 -0.05586951     0.01123756     0.01815827   
 -0.05753815     0.01138928     0.01888374   
 -0.05884849     0.01155098     0.01945984   
 -0.06027959     0.01182851     0.02004193   
 -0.06248341     0.01237560     0.02084655   
 -0.06642992     0.01334118     0.02219093   
 -0.07549290     0.01510822     0.02567073   
 -0.08959110     0.01589096     0.02765997   
 -0.06962040     0.00450207     0.00941069   
 -0.04205491     0.00119296     0.00674012   
 -0.02485530    -0.00040833     0.00446383   
 -0.01195060    -0.00106559     0.00250492   
 -0.00169229    -0.00138753     0.00086327   
  0.00656859    -0.00153045    -0.00050218   
  0.01311992    -0.00155565    -0.00161797   
  0.01809892    -0.00148551    -0.00250006   
  0.02157487    -0.00132670    -0.00315838   
  0.02359102    -0.00107867    -0.00360065   
  0.02419262    -0.00073808    -0.00383549   
  0.02345093    -0.00030190    -0.00387543   
  0.02148485     0.00023112    -0.00374011   
  0.01846835     0.00086443    -0.00345870   
  0.01448260     0.00164333    -0.00303131   
  0.01532891     0.00439743    -0.00781816   
  0.01974117     0.00232036    -0.00876790   
  0.02305156     0.00058090    -0.00936400   
  0.02516206    -0.00088851    -0.00959359   
  0.02590711    -0.00208708    -0.00939282   
  0.02517807    -0.00301417    -0.00871965   
  0.02291124    -0.00367458    -0.00754747   
  0.01906386    -0.00407232    -0.00585814   
  0.01358784    -0.00420113    -0.00363566   
  0.00639908    -0.00403083    -0.00085982   
 -0.00266661    -0.00348238     0.00250042   
 -0.01393283    -0.00236974     0.00649296   
 -0.02802081    -0.00026887     0.01118028   
 -0.04626623     0.00405803     0.01653409   
 -0.06891593     0.01145247     0.02261454   
  0.01826419     0.00637810    -0.01059454   
  0.02265312     0.00341351    -0.01122289   
  0.02582615     0.00075649    -0.01145214   
  0.02755903    -0.00149643    -0.01123539   
  0.02773186    -0.00330615    -0.01053684   
  0.02628227    -0.00465626    -0.00933645   
  0.02317687    -0.00553827    -0.00762332   
  0.01838599    -0.00593566    -0.00539171   
  0.01186022    -0.00580641    -0.00263835   
  0.00350641    -0.00506033     0.00063824   
 -0.00683724    -0.00352533     0.00443444   
 -0.01941228    -0.00090377     0.00872910   
 -0.03448492     0.00326186     0.01344530   
 -0.05166645     0.00903400     0.01843577   
 -0.06762526     0.01368882     0.02326714   
  0.02113092     0.00782038    -0.01237779   
  0.02496384     0.00436987    -0.01256495   
  0.02735987     0.00133363    -0.01229328   
  0.02819947    -0.00117974    -0.01157565   
  0.02743286    -0.00312303    -0.01041388   
  0.02504624    -0.00447314    -0.00881235   
  0.02103651    -0.00520859    -0.00677899   
  0.01539515    -0.00529373    -0.00432538   
  0.00809916    -0.00466620    -0.00146820   
 -0.00088749    -0.00322911     0.00176690   
 -0.01158744    -0.00085941     0.00533770   
 -0.02391977     0.00253074     0.00917254   
 -0.03741607     0.00673890     0.01316005   
 -0.05064272     0.01070299     0.01711178   
 -0.06095602     0.01287795     0.02052058   
  0.02393702     0.00974001    -0.01438502   
  0.02690649     0.00600249    -0.01409909   
  0.02827131     0.00286104    -0.01334299   
  0.02804208     0.00036830    -0.01217713   
  0.02624338    -0.00145642    -0.01062436   
  0.02290738    -0.00260222    -0.00870357   
  0.01806682    -0.00305502    -0.00643483   
  0.01175464    -0.00279313    -0.00384145   
  0.00401343    -0.00179102    -0.00095248   
 -0.00507837    -0.00003790     0.00219400   
 -0.01535064     0.00241547     0.00554667   
 -0.02643439     0.00535849     0.00903713   
 -0.03762457     0.00829597     0.01257000   
 -0.04791222     0.01056927     0.01599927   
 -0.05668212     0.01191711     0.01910856   
  0.02642238     0.01216042    -0.01646104   
  0.02821610     0.00838532    -0.01567738   
  0.02840007     0.00533380    -0.01445692   
  0.02706856     0.00300752    -0.01289032   
  0.02429792     0.00139138    -0.01101027   
  0.02015941     0.00046958    -0.00884135   
  0.01472568     0.00022597    -0.00640785   
  0.00808150     0.00063735    -0.00373616   
  0.00034173     0.00165917    -0.00085643   
 -0.00832122     0.00320140     0.00219584   
 -0.01764188     0.00509619     0.00537846   
 -0.02723825     0.00707829     0.00864035   
 -0.03666067     0.00884287     0.01192033   
 -0.04560163     0.01020426     0.01516659   
 -0.05411199     0.01130155     0.01825485   
  0.02842099     0.01482554    -0.01842870   
  0.02888709     0.01124154    -0.01718361   
  0.02788530     0.00841051    -0.01555379   
  0.02554971     0.00630237    -0.01365101   
  0.02198333     0.00487352    -0.01151024   
  0.01728269     0.00407882    -0.00915486   
  0.01154990     0.00386684    -0.00660680   
  0.00490460     0.00417077    -0.00388879   
 -0.00250346     0.00489756    -0.00102521   
 -0.01048461     0.00591901     0.00195743   
 -0.01881190     0.00707446     0.00503050   
 -0.02725371     0.00820073     0.00816494   
 -0.03565026     0.00919082     0.01133856   
 -0.04399598     0.01005367     0.01454229   
 -0.05246345     0.01100709     0.01765187   
  0.02986106     0.01740522    -0.02011688   
  0.02902776     0.01416875    -0.01849112   
  0.02696298     0.01162109    -0.01653281   
  0.02380645     0.00972166    -0.01436873   
  0.01966500     0.00841166    -0.01203267   
  0.01464107     0.00762776    -0.00954349   
  0.00884365     0.00729871    -0.00691773   
  0.00239504     0.00734044    -0.00417187   
 -0.00456658     0.00765382    -0.00132274   
 -0.01189248     0.00812923     0.00161289   
 -0.01944199     0.00866193     0.00461970   
 -0.02711568     0.00917758     0.00768713   
 -0.03489137     0.00965872     0.01081302   
 -0.04284567     0.01016484     0.01399865   
 -0.05114676     0.01091309     0.01710030   
  0.03074791     0.01961250    -0.02140572   
  0.02878683     0.01679498    -0.01950409   
  0.02585848     0.01454367    -0.01730976   
  0.02208675     0.01282567    -0.01496141   
  0.01756494     0.01158344    -0.01249179   
  0.01238336     0.01075295    -0.00991524   
  0.00663690     0.01026407    -0.00724296   
  0.00042756     0.01003963    -0.00448573   
 -0.00613750     0.00999710    -0.00165411   
 -0.01295516     0.01005558     0.00124242   
 -0.01994329     0.01014845     0.00419731   
 -0.02706104     0.01023834     0.00720908   
 -0.03432595     0.01033049     0.01028239   
 -0.04182355     0.01048702     0.01341756   
 -0.04970406     0.01091540     0.01644924   
  0.03113214     0.02127313    -0.02224239   
  0.02828450     0.01888103    -0.02017115   
  0.02470421     0.01691928    -0.01783010   
  0.02049020     0.01537441    -0.01536872   
  0.01571371     0.01420294    -0.01282086   
  0.01044301     0.01335336    -0.01019811   
  0.00475164     0.01276826    -0.00750834   
 -0.00127723     0.01238240    -0.00475941   
 -0.00755290     0.01212386    -0.00195932   
 -0.01398811     0.01192137     0.00088515   
 -0.02051553     0.01171636     0.00377029   
 -0.02710449     0.01147561     0.00669711   
 -0.03377418     0.01120223     0.00967124   
 -0.04060243     0.01095117     0.01268825   
 -0.04772510     0.01092105     0.01556445   
  0.03106935     0.02234030    -0.02262961   
  0.02757042     0.02034941    -0.02047953   
  0.02350993     0.01867694    -0.01806726   
  0.01896302     0.01733236    -0.01555207   
  0.01397523     0.01629253    -0.01297084   
  0.00859427     0.01552303    -0.01033554   
  0.00288847     0.01497330    -0.00765513   
 -0.00304807     0.01457236    -0.00493962   
 -0.00910657     0.01423587    -0.00219935   
 -0.01518430     0.01388121     0.00055712   
 -0.02120519     0.01344320     0.00332511   
 -0.02713472     0.01288562     0.00610505   
 -0.03298826     0.01220849     0.00890132   
 -0.03883468     0.01146080     0.01170318   
 -0.04479316     0.01082691     0.01431550   
  0.03059023     0.02285643    -0.02259770   
  0.02661592     0.02124513    -0.02043613   
  0.02218059     0.01988124    -0.01800682   
  0.01732316     0.01880216    -0.01547615   
  0.01206657     0.01801125    -0.01288838   
  0.00647404     0.01747294    -0.01026302   
  0.00066424     0.01710599    -0.00761738   
 -0.00521057     0.01679996    -0.00496939   
 -0.01099989     0.01644248    -0.00233537   
 -0.01658418     0.01594204     0.00027247   
 -0.02189026     0.01523986     0.00284771   
 -0.02689408     0.01431156     0.00538986   
 -0.03161605     0.01316400     0.00790131   
 -0.03611373     0.01183992     0.01036467   
 -0.04047158     0.01048937     0.01258506   
  0.02968684     0.02289802    -0.02217255   
  0.02533856     0.02164891    -0.02003206   
  0.02049907     0.02065000    -0.01760245   
  0.01517978     0.01998533    -0.01506132   
  0.00946945     0.01962756    -0.01247063   
  0.00355947     0.01945499    -0.00986849   
 -0.00231530     0.01930641    -0.00728864   
 -0.00794224     0.01903437    -0.00476020   
 -0.01316866     0.01853450    -0.00230487   
 -0.01791031     0.01775140     0.00006427   
 -0.02214088     0.01666951     0.00234212   
 -0.02587296     0.01529758     0.00452944   
 -0.02913760     0.01365374     0.00662733   
 -0.03196591     0.01176165     0.00861317   
 -0.03437085     0.00969942     0.01031002   
  0.02833009     0.02244764    -0.02131865   
  0.02340356     0.02165552    -0.01917504   
  0.01777597     0.02127923    -0.01670374   
  0.01165984     0.02125002    -0.01410721   
  0.00542769     0.02134771    -0.01148995   
 -0.00054906     0.02134337    -0.00892700   
 -0.00600221     0.02107750    -0.00647200   
 -0.01078865     0.02047491    -0.00415773   
 -0.01486814     0.01952722    -0.00199943   
 -0.01826620     0.01826532     0.00000022   
 -0.02103753     0.01673286     0.00184587   
 -0.02323497     0.01496472     0.00354454   
 -0.02488431     0.01297099     0.00509841   
 -0.02596185     0.01072948     0.00648382   
 -0.02636909     0.00820658     0.00756319   
  0.02566690     0.02183236    -0.01982866   
  0.01943463     0.02180101    -0.01749626   
  0.01262517     0.02196715    -0.01479053   
  0.00600385     0.02204246    -0.01202958   
  0.00009668     0.02180714    -0.00940108   
 -0.00486376     0.02118176    -0.00699967   
 -0.00885313     0.02018822    -0.00485695   
 -0.01196079     0.01889916    -0.00296873   
 -0.01431930     0.01739968    -0.00131427   
 -0.01605907     0.01576339     0.00013190   
 -0.01728099     0.01403841     0.00139321   
 -0.01803900     0.01223885     0.00248647   
 -0.01832549     0.01033751     0.00341675   
 -0.01805233     0.00825708     0.00416509   
 -0.01701844     0.00586117     0.00464896   
  0.02038842     0.01941488    -0.01619560   
  0.01263337     0.01865665    -0.01323014   
  0.00588446     0.01793717    -0.01020980   
  0.00063332     0.01700359    -0.00756235   
 -0.00319786     0.01585047    -0.00539378   
 -0.00587419     0.01454903    -0.00366350   
 -0.00768179     0.01318016    -0.00228864   
 -0.00886469     0.01180961    -0.00118846   
 -0.00960709     0.01048067    -0.00029823   
 -0.01003347     0.00921363     0.00042910   
 -0.01021369     0.00800713     0.00102459   
 -0.01016681     0.00683852     0.00150512   
 -0.00985998     0.00566130     0.00187382   
 -0.00919844     0.00439686     0.00211847   
 -0.00799980     0.00291394     0.00220881   
  0.01532891     0.00439743    -0.00781816   
  0.01974117     0.00232036    -0.00876790   
  0.02305156     0.00058090    -0.00936400   
  0.02516206    -0.00088851    -0.00959359   
  0.02590711    -0.00208708    -0.00939282   
  0.02517807    -0.00301417    -0.00871965   
  0.02291124    -0.00367458    -0.00754747   
  0.01906386    -0.00407232    -0.00585814   
  0.01358784    -0.00420113    -0.00363566   
  0.00639908    -0.00403083    -0.00085982   
 -0.00266661    -0.00348238     0.00250042   
 -0.01393283    -0.00236974     0.00649296   
 -0.02802081    -0.00026887     0.01118028   
 -0.04626623     0.00405803     0.01653409   
 -0.06891593     0.01145247     0.02261454   
  0.01826419     0.00637810    -0.01059454   
  0.02265312     0.00341351    -0.01122289   
  0.02582615     0.00075649    -0.01145214   
  0.02755903    -0.00149643    -0.01123539   
  0.02773186    -0.00330615    -0.01053684   
  0.02628227    -0.00465626    -0.00933645   
  0.02317687    -0.00553827    -0.00762332   
  0.01838599    -0.00593566    -0.00539171   
  0.01186022    -0.00580641    -0.00263835   
  0.00350641    -0.00506033     0.00063824   
 -0.00683724    -0.00352533     0.00443444   
 -0.01941228    -0.00090377     0.00872910   
 -0.03448492     0.00326186     0.01344530   
 -0.05166645     0.00903400     0.01843577   
 -0.06762526     0.01368882     0.02326714   
  0.02113092     0.00782038    -0.01237779   
  0.02496384     0.00436987    -0.01256495   
  0.02735987     0.00133363    -0.01229328   
  0.02819947    -0.00117974    -0.01157565   
  0.02743286    -0.00312303    -0.01041388   
  0.02504624    -0.00447314    -0.00881235   
  0.02103651    -0.00520859    -0.00677899   
  0.01539515    -0.00529373    -0.00432538   
  0.00809916    -0.00466620    -0.00146820   
 -0.00088749    -0.00322911     0.00176690   
 -0.01158744    -0.00085941     0.00533770   
 -0.02391977     0.00253074     0.00917254   
 -0.03741607     0.00673890     0.01316005   
 -0.05064272     0.01070299     0.01711178   
 -0.06095602     0.01287795     0.02052058   
  0.02393702     0.00974001    -0.01438502   
  0.02690649     0.00600249    -0.01409909   
  0.02827131     0.00286104    -0.01334299   
  0.02804208     0.00036830    -0.01217713   
  0.02624338    -0.00145642    -0.01062436   
  0.02290738    -0.00260222    -0.00870357   
  0.01806682    -0.00305502    -0.00643483   
  0.01175464    -0.00279313    -0.00384145   
  0.00401343    -0.00179102    -0.00095248   
 -0.00507837    -0.00003790     0.00219400   
 -0.01535064     0.00241547     0.00554667   
 -0.02643439     0.00535849     0.00903713   
 -0.03762457     0.00829597     0.01257000   
 -0.04791222     0.01056927     0.01599927   
 -0.05668212     0.01191711     0.01910856   
  0.02642238     0.01216042    -0.01646104   
  0.02821610     0.00838532    -0.01567738   
  0.02840007     0.00533380    -0.01445692   
  0.02706856     0.00300752    -0.01289032   
  0.02429792     0.00139138    -0.01101027   
  0.02015941     0.00046958    -0.00884135   
  0.01472568     0.00022597    -0.00640785   
  0.00808150     0.00063735    -0.00373616   
  0.00034173     0.00165917    -0.00085643   
 -0.00832122     0.00320140     0.00219584   
 -0.01764188     0.00509619     0.00537846   
 -0.02723825     0.00707829     0.00864035   
 -0.03666067     0.00884287     0.01192033   
 -0.04560163     0.01020426     0.01516659   
 -0.05411199     0.01130155     0.01825485   
  0.02842099     0.01482554    -0.01842870   
  0.02888709     0.01124154    -0.01718361   
  0.02788530     0.00841051    -0.01555379   
  0.02554971     0.00630237    -0.01365101   
  0.02198333     0.00487352    -0.01151024   
  0.01728269     0.00407882    -0.00915486   
  0.01154990     0.00386684    -0.00660680   
  0.00490460     0.00417077    -0.00388879   
 -0.00250346     0.00489756    -0.00102521   
 -0.01048461     0.00591901     0.00195743   
 -0.01881190     0.00707446     0.00503050   
 -0.02725371     0.00820073     0.00816494   
 -0.03565026     0.00919082     0.01133856   
 -0.04399598     0.01005367     0.01454229   
 -0.05246345     0.01100709     0.01765187   
  0.02986106     0.01740522    -0.02011688   
  0.02902776     0.01416875    -0.01849112   
  0.02696298     0.01162109    -0.01653281   
  0.02380645     0.00972166    -0.01436873   
  0.01966500     0.00841166    -0.01203267   
  0.01464107     0.00762776    -0.00954349   
  0.00884365     0.00729871    -0.00691773   
  0.00239504     0.00734044    -0.00417187   
 -0.00456658     0.00765382    -0.00132274   
 -0.01189248     0.00812923     0.00161289   
 -0.01944199     0.00866193     0.00461970   
 -0.02711568     0.00917758     0.00768713   
 -0.03489137     0.00965872     0.01081302   
 -0.04284567     0.01016484     0.01399865   
 -0.05114676     0.01091309     0.01710030   
  0.03074791     0.01961250    -0.02140572   
  0.02878683     0.01679498    -0.01950409   
  0.02585848     0.01454367    -0.01730976   
  0.02208675     0.01282567    -0.01496141   
  0.01756494     0.01158344    -0.01249179   
  0.01238336     0.01075295    -0.00991524   
  0.00663690     0.01026407    -0.00724296   
  0.00042756     0.01003963    -0.00448573   
 -0.00613750     0.00999710    -0.00165411   
 -0.01295516     0.01005558     0.00124242   
 -0.01994329     0.01014845     0.00419731   
 -0.02706104     0.01023834     0.00720908   
 -0.03432595     0.01033049     0.01028239   
 -0.04182355     0.01048702     0.01341756   
 -0.04970406     0.01091540     0.01644924   
  0.03113214     0.02127313    -0.02224239   
  0.02828450     0.01888103    -0.02017115   
  0.02470421     0.01691928    -0.01783010   
  0.02049020     0.01537441    -0.01536872   
  0.01571371     0.01420294    -0.01282086   
  0.01044301     0.01335336    -0.01019811   
  0.00475164     0.01276826    -0.00750834   
 -0.00127723     0.01238240    -0.00475941   
 -0.00755290     0.01212386    -0.00195932   
 -0.01398811     0.01192137     0.00088515   
 -0.02051553     0.01171636     0.00377029   
 -0.02710449     0.01147561     0.00669711   
 -0.03377418     0.01120223     0.00967124   
 -0.04060243     0.01095117     0.01268825   
 -0.04772510     0.01092105     0.01556445   
  0.03106935     0.02234030    -0.02262961   
  0.02757042     0.02034941    -0.02047953   
  0.02350993     0.01867694    -0.01806726   
  0.01896302     0.01733236    -0.01555207   
  0.01397523     0.01629253    -0.01297084   
  0.00859427     0.01552303    -0.01033554   
  0.00288847     0.01497330    -0.00765513   
 -0.00304807     0.01457236    -0.00493962   
 -0.00910657     0.01423587    -0.00219935   
 -0.01518430     0.01388121     0.00055712   
 -0.02120519     0.01344320     0.00332511   
 -0.02713472     0.01288562     0.00610505   
 -0.03298826     0.01220849     0.00890132   
 -0.03883468     0.01146080     0.01170318   
 -0.04479316     0.01082691     0.01431550   
  0.03059023     0.02285643    -0.02259770   
  0.02661592     0.02124513    -0.02043613   
  0.02218059     0.01988124    -0.01800682   
  0.01732316     0.01880216    -0.01547615   
  0.01206657     0.01801125    -0.01288838   
  0.00647404     0.01747294    -0.01026302   
  0.00066424     0.01710599    -0.00761738   
 -0.00521057     0.01679996    -0.00496939   
 -0.01099989     0.01644248    -0.00233537   
 -0.01658418     0.01594204     0.00027247   
 -0.02189026     0.01523986     0.00284771   
 -0.02689408     0.01431156     0.00538986   
 -0.03161605     0.01316400     0.00790131   
 -0.03611373     0.01183992     0.01036467   
 -0.04047158     0.01048937     0.01258506   
  0.02968684     0.02289802    -0.02217255   
  0.02533856     0.02164891    -0.02003206   
  0.02049907     0.02065000    -0.01760245   
  0.01517978     0.01998533    -0.01506132   
  0.00946945     0.01962756    -0.01247063   
  0.00355947     0.01945499    -0.00986849   
 -0.00231530     0.01930641    -0.00728864   
 -0.00794224     0.01903437    -0.00476020   
 -0.01316866     0.01853450    -0.00230487   
 -0.01791031     0.01775140     0.00006427   
 -0.02214088     0.01666951     0.00234212   
 -0.02587296     0.01529758     0.00452944   
 -0.02913760     0.01365374     0.00662733   
 -0.03196591     0.01176165     0.00861317   
 -0.03437085     0.00969942     0.01031002   
  0.02833009     0.02244764    -0.02131865   
  0.02340356     0.02165552    -0.01917504   
  0.01777597     0.02127923    -0.01670374   
  0.01165984     0.02125002    -0.01410721   
  0.00542769     0.02134771    -0.01148995   
 -0.00054906     0.02134337    -0.00892700   
 -0.00600221     0.02107750    -0.00647200   
 -0.01078865     0.02047491    -0.00415773   
 -0.01486814     0.01952722    -0.00199943   
 -0.01826620     0.01826532     0.00000022   
 -0.02103753     0.01673286     0.00184587   
 -0.02323497     0.01496472     0.00354454   
 -0.02488431     0.01297099     0.00509841   
 -0.02596185     0.01072948     0.00648382   
 -0.02636909     0.00820658     0.00756319   
  0.02566690     0.02183236    -0.01982866   
  0.01943463     0.02180101    -0.01749626   
  0.01262517     0.02196715    -0.01479053   
  0.00600385     0.02204246    -0.01202958   
  0.00009668     0.02180714    -0.00940108   
 -0.00486376     0.02118176    -0.00699967   
 -0.00885313     0.02018822    -0.00485695   
 -0.01196079     0.01889916    -0.00296873   
 -0.01431930     0.01739968    -0.00131427   
 -0.01605907     0.01576339     0.00013190   
 -0.01728099     0.01403841     0.00139321   
 -0.01803900     0.01223885     0.00248647   
 -0.01832549     0.01033751     0.00341675   
 -0.01805233     0.00825708     0.00416509   
 -0.01701844     0.00586117     0.00464896   
  0.02038842     0.01941488    -0.01619560   
  0.01263337     0.01865665    -0.01323014   
  0.00588446     0.01793717    -0.01020980   
  0.00063332     0.01700359    -0.00756235   
 -0.00319786     0.01585047    -0.00539378   
 -0.00587419     0.01454903    -0.00366350   
 -0.00768179     0.01318016    -0.00228864   
 -0.00886469     0.01180961    -0.00118846   
 -0.00960709     0.01048067    -0.00029823   
 -0.01003347     0.00921363     0.00042910   
 -0.01021369     0.00800713     0.00102459   
 -0.01016681     0.00683852     0.00150512   
 -0.00985998     0.00566130     0.00187382   
 -0.00919844     0.00439686     0.00211847   
 -0.00799980     0.00291394     0.00220881   
</DataArray> 
</PointData> 
</Piece> 
</UnstructuredGrid> 
</VTKFile> 
