<VTKFile type="UnstructuredGrid" version="0.1"> 
<UnstructuredGrid> 
<Piece NumberOfPoints="2048" NumberOfCells="256"> 
<Points> 
<DataArray  type="Float64"  NumberOfComponents="3" format="ascii" >
0.00000 0.00000 0.00000
48.0000 44.0000 0.00000
48.0000 60.0000 0.00000
0.00000 44.0000 0.00000
0.00000 0.00000 5.00000
48.0000 44.0000 5.00000
48.0000 60.0000 5.00000
0.00000 44.0000 5.00000
3.00000 2.75000 0.00000
6.00000 5.50000 0.00000
9.00000 8.25000 0.00000
12.0000 11.0000 0.00000
15.0000 13.7500 0.00000
18.0000 16.5000 0.00000
21.0000 19.2500 0.00000
24.0000 22.0000 0.00000
27.0000 24.7500 0.00000
30.0000 27.5000 0.00000
33.0000 30.2500 0.00000
36.0000 33.0000 0.00000
39.0000 35.7500 0.00000
42.0000 38.5000 0.00000
45.0000 41.2500 0.00000
48.0000 45.0000 0.00000
48.0000 46.0000 0.00000
48.0000 47.0000 0.00000
48.0000 48.0000 0.00000
48.0000 49.0000 0.00000
48.0000 50.0000 0.00000
48.0000 51.0000 0.00000
48.0000 52.0000 0.00000
48.0000 53.0000 0.00000
48.0000 54.0000 0.00000
48.0000 55.0000 0.00000
48.0000 56.0000 0.00000
48.0000 57.0000 0.00000
48.0000 58.0000 0.00000
48.0000 59.0000 0.00000
45.0000 59.0000 0.00000
42.0000 58.0000 0.00000
39.0000 57.0000 0.00000
36.0000 56.0000 0.00000
33.0000 55.0000 0.00000
30.0000 54.0000 0.00000
27.0000 53.0000 0.00000
24.0000 52.0000 0.00000
21.0000 51.0000 0.00000
18.0000 50.0000 0.00000
15.0000 49.0000 0.00000
12.0000 48.0000 0.00000
9.00000 47.0000 0.00000
6.00000 46.0000 0.00000
3.00000 45.0000 0.00000
0.00000 41.2500 0.00000
0.00000 38.5000 0.00000
0.00000 35.7500 0.00000
0.00000 33.0000 0.00000
0.00000 30.2500 0.00000
0.00000 27.5000 0.00000
0.00000 24.7500 0.00000
0.00000 22.0000 0.00000
0.00000 19.2500 0.00000
0.00000 16.5000 0.00000
0.00000 13.7500 0.00000
0.00000 11.0000 0.00000
0.00000 8.25000 0.00000
0.00000 5.50000 0.00000
0.00000 2.75000 0.00000
3.00000 2.75000 5.00000
6.00000 5.50000 5.00000
9.00000 8.25000 5.00000
12.0000 11.0000 5.00000
15.0000 13.7500 5.00000
18.0000 16.5000 5.00000
21.0000 19.2500 5.00000
24.0000 22.0000 5.00000
27.0000 24.7500 5.00000
30.0000 27.5000 5.00000
33.0000 30.2500 5.00000
36.0000 33.0000 5.00000
39.0000 35.7500 5.00000
42.0000 38.5000 5.00000
45.0000 41.2500 5.00000
48.0000 45.0000 5.00000
48.0000 46.0000 5.00000
48.0000 47.0000 5.00000
48.0000 48.0000 5.00000
48.0000 49.0000 5.00000
48.0000 50.0000 5.00000
48.0000 51.0000 5.00000
48.0000 52.0000 5.00000
48.0000 53.0000 5.00000
48.0000 54.0000 5.00000
48.0000 55.0000 5.00000
48.0000 56.0000 5.00000
48.0000 57.0000 5.00000
48.0000 58.0000 5.00000
48.0000 59.0000 5.00000
45.0000 59.0000 5.00000
42.0000 58.0000 5.00000
39.0000 57.0000 5.00000
36.0000 56.0000 5.00000
33.0000 55.0000 5.00000
30.0000 54.0000 5.00000
27.0000 53.0000 5.00000
24.0000 52.0000 5.00000
21.0000 51.0000 5.00000
18.0000 50.0000 5.00000
15.0000 49.0000 5.00000
12.0000 48.0000 5.00000
9.00000 47.0000 5.00000
6.00000 46.0000 5.00000
3.00000 45.0000 5.00000
0.00000 41.2500 5.00000
0.00000 38.5000 5.00000
0.00000 35.7500 5.00000
0.00000 33.0000 5.00000
0.00000 30.2500 5.00000
0.00000 27.5000 5.00000
0.00000 24.7500 5.00000
0.00000 22.0000 5.00000
0.00000 19.2500 5.00000
0.00000 16.5000 5.00000
0.00000 13.7500 5.00000
0.00000 11.0000 5.00000
0.00000 8.25000 5.00000
0.00000 5.50000 5.00000
0.00000 2.75000 5.00000
3.00000 5.39062 0.00000
3.00000 8.03125 0.00000
3.00000 10.6719 0.00000
3.00000 13.3125 0.00000
3.00000 15.9531 0.00000
3.00000 18.5938 0.00000
3.00000 21.2344 0.00000
3.00000 23.8750 0.00000
3.00000 26.5156 0.00000
3.00000 29.1563 0.00000
3.00000 31.7969 0.00000
3.00000 34.4375 0.00000
3.00000 37.0781 0.00000
3.00000 39.7187 0.00000
3.00000 42.3594 0.00000
6.00000 8.03125 0.00000
6.00000 10.5625 0.00000
6.00000 13.0938 0.00000
6.00000 15.6250 0.00000
6.00000 18.1563 0.00000
6.00000 20.6875 0.00000
6.00000 23.2188 0.00000
6.00000 25.7500 0.00000
6.00000 28.2813 0.00000
6.00000 30.8125 0.00000
6.00000 33.3437 0.00000
6.00000 35.8750 0.00000
6.00000 38.4062 0.00000
6.00000 40.9375 0.00000
6.00000 43.4687 0.00000
9.00000 10.6719 0.00000
9.00000 13.0937 0.00000
9.00000 15.5156 0.00000
9.00000 17.9375 0.00000
9.00000 20.3594 0.00000
9.00000 22.7813 0.00000
9.00000 25.2031 0.00000
9.00000 27.6250 0.00000
9.00000 30.0469 0.00000
9.00000 32.4687 0.00000
9.00000 34.8906 0.00000
9.00000 37.3125 0.00000
9.00000 39.7344 0.00000
9.00000 42.1562 0.00000
9.00000 44.5781 0.00000
12.0000 13.3125 0.00000
12.0000 15.6250 0.00000
12.0000 17.9375 0.00000
12.0000 20.2500 0.00000
12.0000 22.5625 0.00000
12.0000 24.8750 0.00000
12.0000 27.1875 0.00000
12.0000 29.5000 0.00000
12.0000 31.8125 0.00000
12.0000 34.1250 0.00000
12.0000 36.4375 0.00000
12.0000 38.7500 0.00000
12.0000 41.0625 0.00000
12.0000 43.3750 0.00000
12.0000 45.6875 0.00000
15.0000 15.9531 0.00000
15.0000 18.1562 0.00000
15.0000 20.3594 0.00000
15.0000 22.5625 0.00000
15.0000 24.7656 0.00000
15.0000 26.9687 0.00000
15.0000 29.1719 0.00000
15.0000 31.3750 0.00000
15.0000 33.5781 0.00000
15.0000 35.7812 0.00000
15.0000 37.9844 0.00000
15.0000 40.1875 0.00000
15.0000 42.3906 0.00000
15.0000 44.5937 0.00000
15.0000 46.7969 0.00000
18.0000 18.5937 0.00000
18.0000 20.6875 0.00000
18.0000 22.7812 0.00000
18.0000 24.8750 0.00000
18.0000 26.9687 0.00000
18.0000 29.0625 0.00000
18.0000 31.1562 0.00000
18.0000 33.2500 0.00000
18.0000 35.3437 0.00000
18.0000 37.4375 0.00000
18.0000 39.5312 0.00000
18.0000 41.6250 0.00000
18.0000 43.7187 0.00000
18.0000 45.8125 0.00000
18.0000 47.9063 0.00000
21.0000 21.2344 0.00000
21.0000 23.2187 0.00000
21.0000 25.2031 0.00000
21.0000 27.1875 0.00000
21.0000 29.1719 0.00000
21.0000 31.1562 0.00000
21.0000 33.1406 0.00000
21.0000 35.1250 0.00000
21.0000 37.1094 0.00000
21.0000 39.0937 0.00000
21.0000 41.0781 0.00000
21.0000 43.0625 0.00000
21.0000 45.0469 0.00000
21.0000 47.0313 0.00000
21.0000 49.0156 0.00000
24.0000 23.8750 0.00000
24.0000 25.7500 0.00000
24.0000 27.6250 0.00000
24.0000 29.5000 0.00000
24.0000 31.3750 0.00000
24.0000 33.2500 0.00000
24.0000 35.1250 0.00000
24.0000 37.0000 0.00000
24.0000 38.8750 0.00000
24.0000 40.7500 0.00000
24.0000 42.6250 0.00000
24.0000 44.5000 0.00000
24.0000 46.3750 0.00000
24.0000 48.2500 0.00000
24.0000 50.1250 0.00000
27.0000 26.5156 0.00000
27.0000 28.2812 0.00000
27.0000 30.0469 0.00000
27.0000 31.8125 0.00000
27.0000 33.5781 0.00000
27.0000 35.3437 0.00000
27.0000 37.1094 0.00000
27.0000 38.8750 0.00000
27.0000 40.6406 0.00000
27.0000 42.4062 0.00000
27.0000 44.1719 0.00000
27.0000 45.9375 0.00000
27.0000 47.7031 0.00000
27.0000 49.4688 0.00000
27.0000 51.2344 0.00000
30.0000 29.1562 0.00000
30.0000 30.8125 0.00000
30.0000 32.4687 0.00000
30.0000 34.1250 0.00000
30.0000 35.7812 0.00000
30.0000 37.4375 0.00000
30.0000 39.0937 0.00000
30.0000 40.7500 0.00000
30.0000 42.4062 0.00000
30.0000 44.0625 0.00000
30.0000 45.7187 0.00000
30.0000 47.3750 0.00000
30.0000 49.0312 0.00000
30.0000 50.6875 0.00000
30.0000 52.3438 0.00000
33.0000 31.7969 0.00000
33.0000 33.3437 0.00000
33.0000 34.8906 0.00000
33.0000 36.4375 0.00000
33.0000 37.9844 0.00000
33.0000 39.5312 0.00000
33.0000 41.0781 0.00000
33.0000 42.6250 0.00000
33.0000 44.1719 0.00000
33.0000 45.7187 0.00000
33.0000 47.2656 0.00000
33.0000 48.8125 0.00000
33.0000 50.3594 0.00000
33.0000 51.9062 0.00000
33.0000 53.4531 0.00000
36.0000 34.4375 0.00000
36.0000 35.8750 0.00000
36.0000 37.3125 0.00000
36.0000 38.7500 0.00000
36.0000 40.1875 0.00000
36.0000 41.6250 0.00000
36.0000 43.0625 0.00000
36.0000 44.5000 0.00000
36.0000 45.9375 0.00000
36.0000 47.3750 0.00000
36.0000 48.8125 0.00000
36.0000 50.2500 0.00000
36.0000 51.6875 0.00000
36.0000 53.1250 0.00000
36.0000 54.5625 0.00000
39.0000 37.0781 0.00000
39.0000 38.4062 0.00000
39.0000 39.7344 0.00000
39.0000 41.0625 0.00000
39.0000 42.3906 0.00000
39.0000 43.7187 0.00000
39.0000 45.0469 0.00000
39.0000 46.3750 0.00000
39.0000 47.7031 0.00000
39.0000 49.0312 0.00000
39.0000 50.3594 0.00000
39.0000 51.6875 0.00000
39.0000 53.0156 0.00000
39.0000 54.3438 0.00000
39.0000 55.6719 0.00000
42.0000 39.7187 0.00000
42.0000 40.9375 0.00000
42.0000 42.1562 0.00000
42.0000 43.3750 0.00000
42.0000 44.5937 0.00000
42.0000 45.8125 0.00000
42.0000 47.0312 0.00000
42.0000 48.2500 0.00000
42.0000 49.4687 0.00000
42.0000 50.6875 0.00000
42.0000 51.9062 0.00000
42.0000 53.1250 0.00000
42.0000 54.3438 0.00000
42.0000 55.5625 0.00000
42.0000 56.7813 0.00000
45.0000 42.3594 0.00000
45.0000 43.4687 0.00000
45.0000 44.5781 0.00000
45.0000 45.6875 0.00000
45.0000 46.7969 0.00000
45.0000 47.9062 0.00000
45.0000 49.0156 0.00000
45.0000 50.1250 0.00000
45.0000 51.2344 0.00000
45.0000 52.3438 0.00000
45.0000 53.4531 0.00000
45.0000 54.5625 0.00000
45.0000 55.6719 0.00000
45.0000 56.7813 0.00000
45.0000 57.8906 0.00000
3.00000 5.39062 5.00000
3.00000 8.03125 5.00000
3.00000 10.6719 5.00000
3.00000 13.3125 5.00000
3.00000 15.9531 5.00000
3.00000 18.5938 5.00000
3.00000 21.2344 5.00000
3.00000 23.8750 5.00000
3.00000 26.5156 5.00000
3.00000 29.1563 5.00000
3.00000 31.7969 5.00000
3.00000 34.4375 5.00000
3.00000 37.0781 5.00000
3.00000 39.7187 5.00000
3.00000 42.3594 5.00000
6.00000 8.03125 5.00000
6.00000 10.5625 5.00000
6.00000 13.0938 5.00000
6.00000 15.6250 5.00000
6.00000 18.1563 5.00000
6.00000 20.6875 5.00000
6.00000 23.2188 5.00000
6.00000 25.7500 5.00000
6.00000 28.2813 5.00000
6.00000 30.8125 5.00000
6.00000 33.3437 5.00000
6.00000 35.8750 5.00000
6.00000 38.4062 5.00000
6.00000 40.9375 5.00000
6.00000 43.4687 5.00000
9.00000 10.6719 5.00000
9.00000 13.0937 5.00000
9.00000 15.5156 5.00000
9.00000 17.9375 5.00000
9.00000 20.3594 5.00000
9.00000 22.7813 5.00000
9.00000 25.2031 5.00000
9.00000 27.6250 5.00000
9.00000 30.0469 5.00000
9.00000 32.4687 5.00000
9.00000 34.8906 5.00000
9.00000 37.3125 5.00000
9.00000 39.7344 5.00000
9.00000 42.1562 5.00000
9.00000 44.5781 5.00000
12.0000 13.3125 5.00000
12.0000 15.6250 5.00000
12.0000 17.9375 5.00000
12.0000 20.2500 5.00000
12.0000 22.5625 5.00000
12.0000 24.8750 5.00000
12.0000 27.1875 5.00000
12.0000 29.5000 5.00000
12.0000 31.8125 5.00000
12.0000 34.1250 5.00000
12.0000 36.4375 5.00000
12.0000 38.7500 5.00000
12.0000 41.0625 5.00000
12.0000 43.3750 5.00000
12.0000 45.6875 5.00000
15.0000 15.9531 5.00000
15.0000 18.1562 5.00000
15.0000 20.3594 5.00000
15.0000 22.5625 5.00000
15.0000 24.7656 5.00000
15.0000 26.9687 5.00000
15.0000 29.1719 5.00000
15.0000 31.3750 5.00000
15.0000 33.5781 5.00000
15.0000 35.7812 5.00000
15.0000 37.9844 5.00000
15.0000 40.1875 5.00000
15.0000 42.3906 5.00000
15.0000 44.5937 5.00000
15.0000 46.7969 5.00000
18.0000 18.5937 5.00000
18.0000 20.6875 5.00000
18.0000 22.7812 5.00000
18.0000 24.8750 5.00000
18.0000 26.9687 5.00000
18.0000 29.0625 5.00000
18.0000 31.1562 5.00000
18.0000 33.2500 5.00000
18.0000 35.3437 5.00000
18.0000 37.4375 5.00000
18.0000 39.5312 5.00000
18.0000 41.6250 5.00000
18.0000 43.7187 5.00000
18.0000 45.8125 5.00000
18.0000 47.9063 5.00000
21.0000 21.2344 5.00000
21.0000 23.2187 5.00000
21.0000 25.2031 5.00000
21.0000 27.1875 5.00000
21.0000 29.1719 5.00000
21.0000 31.1562 5.00000
21.0000 33.1406 5.00000
21.0000 35.1250 5.00000
21.0000 37.1094 5.00000
21.0000 39.0937 5.00000
21.0000 41.0781 5.00000
21.0000 43.0625 5.00000
21.0000 45.0469 5.00000
21.0000 47.0313 5.00000
21.0000 49.0156 5.00000
24.0000 23.8750 5.00000
24.0000 25.7500 5.00000
24.0000 27.6250 5.00000
24.0000 29.5000 5.00000
24.0000 31.3750 5.00000
24.0000 33.2500 5.00000
24.0000 35.1250 5.00000
24.0000 37.0000 5.00000
24.0000 38.8750 5.00000
24.0000 40.7500 5.00000
24.0000 42.6250 5.00000
24.0000 44.5000 5.00000
24.0000 46.3750 5.00000
24.0000 48.2500 5.00000
24.0000 50.1250 5.00000
27.0000 26.5156 5.00000
27.0000 28.2812 5.00000
27.0000 30.0469 5.00000
27.0000 31.8125 5.00000
27.0000 33.5781 5.00000
27.0000 35.3437 5.00000
27.0000 37.1094 5.00000
27.0000 38.8750 5.00000
27.0000 40.6406 5.00000
27.0000 42.4062 5.00000
27.0000 44.1719 5.00000
27.0000 45.9375 5.00000
27.0000 47.7031 5.00000
27.0000 49.4688 5.00000
27.0000 51.2344 5.00000
30.0000 29.1562 5.00000
30.0000 30.8125 5.00000
30.0000 32.4687 5.00000
30.0000 34.1250 5.00000
30.0000 35.7812 5.00000
30.0000 37.4375 5.00000
30.0000 39.0937 5.00000
30.0000 40.7500 5.00000
30.0000 42.4062 5.00000
30.0000 44.0625 5.00000
30.0000 45.7187 5.00000
30.0000 47.3750 5.00000
30.0000 49.0312 5.00000
30.0000 50.6875 5.00000
30.0000 52.3438 5.00000
33.0000 31.7969 5.00000
33.0000 33.3437 5.00000
33.0000 34.8906 5.00000
33.0000 36.4375 5.00000
33.0000 37.9844 5.00000
33.0000 39.5312 5.00000
33.0000 41.0781 5.00000
33.0000 42.6250 5.00000
33.0000 44.1719 5.00000
33.0000 45.7187 5.00000
33.0000 47.2656 5.00000
33.0000 48.8125 5.00000
33.0000 50.3594 5.00000
33.0000 51.9062 5.00000
33.0000 53.4531 5.00000
36.0000 34.4375 5.00000
36.0000 35.8750 5.00000
36.0000 37.3125 5.00000
36.0000 38.7500 5.00000
36.0000 40.1875 5.00000
36.0000 41.6250 5.00000
36.0000 43.0625 5.00000
36.0000 44.5000 5.00000
36.0000 45.9375 5.00000
36.0000 47.3750 5.00000
36.0000 48.8125 5.00000
36.0000 50.2500 5.00000
36.0000 51.6875 5.00000
36.0000 53.1250 5.00000
36.0000 54.5625 5.00000
39.0000 37.0781 5.00000
39.0000 38.4062 5.00000
39.0000 39.7344 5.00000
39.0000 41.0625 5.00000
39.0000 42.3906 5.00000
39.0000 43.7187 5.00000
39.0000 45.0469 5.00000
39.0000 46.3750 5.00000
39.0000 47.7031 5.00000
39.0000 49.0312 5.00000
39.0000 50.3594 5.00000
39.0000 51.6875 5.00000
39.0000 53.0156 5.00000
39.0000 54.3438 5.00000
39.0000 55.6719 5.00000
42.0000 39.7187 5.00000
42.0000 40.9375 5.00000
42.0000 42.1562 5.00000
42.0000 43.3750 5.00000
42.0000 44.5937 5.00000
42.0000 45.8125 5.00000
42.0000 47.0312 5.00000
42.0000 48.2500 5.00000
42.0000 49.4687 5.00000
42.0000 50.6875 5.00000
42.0000 51.9062 5.00000
42.0000 53.1250 5.00000
42.0000 54.3438 5.00000
42.0000 55.5625 5.00000
42.0000 56.7813 5.00000
45.0000 42.3594 5.00000
45.0000 43.4687 5.00000
45.0000 44.5781 5.00000
45.0000 45.6875 5.00000
45.0000 46.7969 5.00000
45.0000 47.9062 5.00000
45.0000 49.0156 5.00000
45.0000 50.1250 5.00000
45.0000 51.2344 5.00000
45.0000 52.3438 5.00000
45.0000 53.4531 5.00000
45.0000 54.5625 5.00000
45.0000 55.6719 5.00000
45.0000 56.7813 5.00000
45.0000 57.8906 5.00000
3.00000 2.75000 0.00000
6.00000 5.50000 0.00000
9.00000 8.25000 0.00000
12.0000 11.0000 0.00000
15.0000 13.7500 0.00000
18.0000 16.5000 0.00000
21.0000 19.2500 0.00000
24.0000 22.0000 0.00000
27.0000 24.7500 0.00000
30.0000 27.5000 0.00000
33.0000 30.2500 0.00000
36.0000 33.0000 0.00000
39.0000 35.7500 0.00000
42.0000 38.5000 0.00000
45.0000 41.2500 0.00000
48.0000 45.0000 0.00000
48.0000 46.0000 0.00000
48.0000 47.0000 0.00000
48.0000 48.0000 0.00000
48.0000 49.0000 0.00000
48.0000 50.0000 0.00000
48.0000 51.0000 0.00000
48.0000 52.0000 0.00000
48.0000 53.0000 0.00000
48.0000 54.0000 0.00000
48.0000 55.0000 0.00000
48.0000 56.0000 0.00000
48.0000 57.0000 0.00000
48.0000 58.0000 0.00000
48.0000 59.0000 0.00000
45.0000 59.0000 0.00000
42.0000 58.0000 0.00000
39.0000 57.0000 0.00000
36.0000 56.0000 0.00000
33.0000 55.0000 0.00000
30.0000 54.0000 0.00000
27.0000 53.0000 0.00000
24.0000 52.0000 0.00000
21.0000 51.0000 0.00000
18.0000 50.0000 0.00000
15.0000 49.0000 0.00000
12.0000 48.0000 0.00000
9.00000 47.0000 0.00000
6.00000 46.0000 0.00000
3.00000 45.0000 0.00000
0.00000 41.2500 0.00000
0.00000 38.5000 0.00000
0.00000 35.7500 0.00000
0.00000 33.0000 0.00000
0.00000 30.2500 0.00000
0.00000 27.5000 0.00000
0.00000 24.7500 0.00000
0.00000 22.0000 0.00000
0.00000 19.2500 0.00000
0.00000 16.5000 0.00000
0.00000 13.7500 0.00000
0.00000 11.0000 0.00000
0.00000 8.25000 0.00000
0.00000 5.50000 0.00000
0.00000 2.75000 0.00000
3.00000 2.75000 5.00000
6.00000 5.50000 5.00000
9.00000 8.25000 5.00000
12.0000 11.0000 5.00000
15.0000 13.7500 5.00000
18.0000 16.5000 5.00000
21.0000 19.2500 5.00000
24.0000 22.0000 5.00000
27.0000 24.7500 5.00000
30.0000 27.5000 5.00000
33.0000 30.2500 5.00000
36.0000 33.0000 5.00000
39.0000 35.7500 5.00000
42.0000 38.5000 5.00000
45.0000 41.2500 5.00000
48.0000 45.0000 5.00000
48.0000 46.0000 5.00000
48.0000 47.0000 5.00000
48.0000 48.0000 5.00000
48.0000 49.0000 5.00000
48.0000 50.0000 5.00000
48.0000 51.0000 5.00000
48.0000 52.0000 5.00000
48.0000 53.0000 5.00000
48.0000 54.0000 5.00000
48.0000 55.0000 5.00000
48.0000 56.0000 5.00000
48.0000 57.0000 5.00000
48.0000 58.0000 5.00000
48.0000 59.0000 5.00000
45.0000 59.0000 5.00000
42.0000 58.0000 5.00000
39.0000 57.0000 5.00000
36.0000 56.0000 5.00000
33.0000 55.0000 5.00000
30.0000 54.0000 5.00000
27.0000 53.0000 5.00000
24.0000 52.0000 5.00000
21.0000 51.0000 5.00000
18.0000 50.0000 5.00000
15.0000 49.0000 5.00000
12.0000 48.0000 5.00000
9.00000 47.0000 5.00000
6.00000 46.0000 5.00000
3.00000 45.0000 5.00000
0.00000 41.2500 5.00000
0.00000 38.5000 5.00000
0.00000 35.7500 5.00000
0.00000 33.0000 5.00000
0.00000 30.2500 5.00000
0.00000 27.5000 5.00000
0.00000 24.7500 5.00000
0.00000 22.0000 5.00000
0.00000 19.2500 5.00000
0.00000 16.5000 5.00000
0.00000 13.7500 5.00000
0.00000 11.0000 5.00000
0.00000 8.25000 5.00000
0.00000 5.50000 5.00000
0.00000 2.75000 5.00000
3.00000 5.39062 0.00000
3.00000 5.39062 0.00000
3.00000 5.39062 0.00000
3.00000 8.03125 0.00000
3.00000 8.03125 0.00000
3.00000 8.03125 0.00000
3.00000 10.6719 0.00000
3.00000 10.6719 0.00000
3.00000 10.6719 0.00000
3.00000 13.3125 0.00000
3.00000 13.3125 0.00000
3.00000 13.3125 0.00000
3.00000 15.9531 0.00000
3.00000 15.9531 0.00000
3.00000 15.9531 0.00000
3.00000 18.5938 0.00000
3.00000 18.5938 0.00000
3.00000 18.5938 0.00000
3.00000 21.2344 0.00000
3.00000 21.2344 0.00000
3.00000 21.2344 0.00000
3.00000 23.8750 0.00000
3.00000 23.8750 0.00000
3.00000 23.8750 0.00000
3.00000 26.5156 0.00000
3.00000 26.5156 0.00000
3.00000 26.5156 0.00000
3.00000 29.1563 0.00000
3.00000 29.1563 0.00000
3.00000 29.1563 0.00000
3.00000 31.7969 0.00000
3.00000 31.7969 0.00000
3.00000 31.7969 0.00000
3.00000 34.4375 0.00000
3.00000 34.4375 0.00000
3.00000 34.4375 0.00000
3.00000 37.0781 0.00000
3.00000 37.0781 0.00000
3.00000 37.0781 0.00000
3.00000 39.7187 0.00000
3.00000 39.7187 0.00000
3.00000 39.7187 0.00000
3.00000 42.3594 0.00000
3.00000 42.3594 0.00000
3.00000 42.3594 0.00000
6.00000 8.03125 0.00000
6.00000 8.03125 0.00000
6.00000 8.03125 0.00000
6.00000 10.5625 0.00000
6.00000 10.5625 0.00000
6.00000 10.5625 0.00000
6.00000 13.0938 0.00000
6.00000 13.0938 0.00000
6.00000 13.0938 0.00000
6.00000 15.6250 0.00000
6.00000 15.6250 0.00000
6.00000 15.6250 0.00000
6.00000 18.1563 0.00000
6.00000 18.1563 0.00000
6.00000 18.1563 0.00000
6.00000 20.6875 0.00000
6.00000 20.6875 0.00000
6.00000 20.6875 0.00000
6.00000 23.2188 0.00000
6.00000 23.2188 0.00000
6.00000 23.2188 0.00000
6.00000 25.7500 0.00000
6.00000 25.7500 0.00000
6.00000 25.7500 0.00000
6.00000 28.2813 0.00000
6.00000 28.2813 0.00000
6.00000 28.2813 0.00000
6.00000 30.8125 0.00000
6.00000 30.8125 0.00000
6.00000 30.8125 0.00000
6.00000 33.3437 0.00000
6.00000 33.3437 0.00000
6.00000 33.3437 0.00000
6.00000 35.8750 0.00000
6.00000 35.8750 0.00000
6.00000 35.8750 0.00000
6.00000 38.4062 0.00000
6.00000 38.4062 0.00000
6.00000 38.4062 0.00000
6.00000 40.9375 0.00000
6.00000 40.9375 0.00000
6.00000 40.9375 0.00000
6.00000 43.4687 0.00000
6.00000 43.4687 0.00000
6.00000 43.4687 0.00000
9.00000 10.6719 0.00000
9.00000 10.6719 0.00000
9.00000 10.6719 0.00000
9.00000 13.0937 0.00000
9.00000 13.0937 0.00000
9.00000 13.0937 0.00000
9.00000 15.5156 0.00000
9.00000 15.5156 0.00000
9.00000 15.5156 0.00000
9.00000 17.9375 0.00000
9.00000 17.9375 0.00000
9.00000 17.9375 0.00000
9.00000 20.3594 0.00000
9.00000 20.3594 0.00000
9.00000 20.3594 0.00000
9.00000 22.7813 0.00000
9.00000 22.7813 0.00000
9.00000 22.7813 0.00000
9.00000 25.2031 0.00000
9.00000 25.2031 0.00000
9.00000 25.2031 0.00000
9.00000 27.6250 0.00000
9.00000 27.6250 0.00000
9.00000 27.6250 0.00000
9.00000 30.0469 0.00000
9.00000 30.0469 0.00000
9.00000 30.0469 0.00000
9.00000 32.4687 0.00000
9.00000 32.4687 0.00000
9.00000 32.4687 0.00000
9.00000 34.8906 0.00000
9.00000 34.8906 0.00000
9.00000 34.8906 0.00000
9.00000 37.3125 0.00000
9.00000 37.3125 0.00000
9.00000 37.3125 0.00000
9.00000 39.7344 0.00000
9.00000 39.7344 0.00000
9.00000 39.7344 0.00000
9.00000 42.1562 0.00000
9.00000 42.1562 0.00000
9.00000 42.1562 0.00000
9.00000 44.5781 0.00000
9.00000 44.5781 0.00000
9.00000 44.5781 0.00000
12.0000 13.3125 0.00000
12.0000 13.3125 0.00000
12.0000 13.3125 0.00000
12.0000 15.6250 0.00000
12.0000 15.6250 0.00000
12.0000 15.6250 0.00000
12.0000 17.9375 0.00000
12.0000 17.9375 0.00000
12.0000 17.9375 0.00000
12.0000 20.2500 0.00000
12.0000 20.2500 0.00000
12.0000 20.2500 0.00000
12.0000 22.5625 0.00000
12.0000 22.5625 0.00000
12.0000 22.5625 0.00000
12.0000 24.8750 0.00000
12.0000 24.8750 0.00000
12.0000 24.8750 0.00000
12.0000 27.1875 0.00000
12.0000 27.1875 0.00000
12.0000 27.1875 0.00000
12.0000 29.5000 0.00000
12.0000 29.5000 0.00000
12.0000 29.5000 0.00000
12.0000 31.8125 0.00000
12.0000 31.8125 0.00000
12.0000 31.8125 0.00000
12.0000 34.1250 0.00000
12.0000 34.1250 0.00000
12.0000 34.1250 0.00000
12.0000 36.4375 0.00000
12.0000 36.4375 0.00000
12.0000 36.4375 0.00000
12.0000 38.7500 0.00000
12.0000 38.7500 0.00000
12.0000 38.7500 0.00000
12.0000 41.0625 0.00000
12.0000 41.0625 0.00000
12.0000 41.0625 0.00000
12.0000 43.3750 0.00000
12.0000 43.3750 0.00000
12.0000 43.3750 0.00000
12.0000 45.6875 0.00000
12.0000 45.6875 0.00000
12.0000 45.6875 0.00000
15.0000 15.9531 0.00000
15.0000 15.9531 0.00000
15.0000 15.9531 0.00000
15.0000 18.1562 0.00000
15.0000 18.1562 0.00000
15.0000 18.1562 0.00000
15.0000 20.3594 0.00000
15.0000 20.3594 0.00000
15.0000 20.3594 0.00000
15.0000 22.5625 0.00000
15.0000 22.5625 0.00000
15.0000 22.5625 0.00000
15.0000 24.7656 0.00000
15.0000 24.7656 0.00000
15.0000 24.7656 0.00000
15.0000 26.9687 0.00000
15.0000 26.9687 0.00000
15.0000 26.9687 0.00000
15.0000 29.1719 0.00000
15.0000 29.1719 0.00000
15.0000 29.1719 0.00000
15.0000 31.3750 0.00000
15.0000 31.3750 0.00000
15.0000 31.3750 0.00000
15.0000 33.5781 0.00000
15.0000 33.5781 0.00000
15.0000 33.5781 0.00000
15.0000 35.7812 0.00000
15.0000 35.7812 0.00000
15.0000 35.7812 0.00000
15.0000 37.9844 0.00000
15.0000 37.9844 0.00000
15.0000 37.9844 0.00000
15.0000 40.1875 0.00000
15.0000 40.1875 0.00000
15.0000 40.1875 0.00000
15.0000 42.3906 0.00000
15.0000 42.3906 0.00000
15.0000 42.3906 0.00000
15.0000 44.5937 0.00000
15.0000 44.5937 0.00000
15.0000 44.5937 0.00000
15.0000 46.7969 0.00000
15.0000 46.7969 0.00000
15.0000 46.7969 0.00000
18.0000 18.5937 0.00000
18.0000 18.5937 0.00000
18.0000 18.5937 0.00000
18.0000 20.6875 0.00000
18.0000 20.6875 0.00000
18.0000 20.6875 0.00000
18.0000 22.7812 0.00000
18.0000 22.7812 0.00000
18.0000 22.7812 0.00000
18.0000 24.8750 0.00000
18.0000 24.8750 0.00000
18.0000 24.8750 0.00000
18.0000 26.9687 0.00000
18.0000 26.9687 0.00000
18.0000 26.9687 0.00000
18.0000 29.0625 0.00000
18.0000 29.0625 0.00000
18.0000 29.0625 0.00000
18.0000 31.1562 0.00000
18.0000 31.1562 0.00000
18.0000 31.1562 0.00000
18.0000 33.2500 0.00000
18.0000 33.2500 0.00000
18.0000 33.2500 0.00000
18.0000 35.3437 0.00000
18.0000 35.3437 0.00000
18.0000 35.3437 0.00000
18.0000 37.4375 0.00000
18.0000 37.4375 0.00000
18.0000 37.4375 0.00000
18.0000 39.5312 0.00000
18.0000 39.5312 0.00000
18.0000 39.5312 0.00000
18.0000 41.6250 0.00000
18.0000 41.6250 0.00000
18.0000 41.6250 0.00000
18.0000 43.7187 0.00000
18.0000 43.7187 0.00000
18.0000 43.7187 0.00000
18.0000 45.8125 0.00000
18.0000 45.8125 0.00000
18.0000 45.8125 0.00000
18.0000 47.9063 0.00000
18.0000 47.9063 0.00000
18.0000 47.9063 0.00000
21.0000 21.2344 0.00000
21.0000 21.2344 0.00000
21.0000 21.2344 0.00000
21.0000 23.2187 0.00000
21.0000 23.2187 0.00000
21.0000 23.2187 0.00000
21.0000 25.2031 0.00000
21.0000 25.2031 0.00000
21.0000 25.2031 0.00000
21.0000 27.1875 0.00000
21.0000 27.1875 0.00000
21.0000 27.1875 0.00000
21.0000 29.1719 0.00000
21.0000 29.1719 0.00000
21.0000 29.1719 0.00000
21.0000 31.1562 0.00000
21.0000 31.1562 0.00000
21.0000 31.1562 0.00000
21.0000 33.1406 0.00000
21.0000 33.1406 0.00000
21.0000 33.1406 0.00000
21.0000 35.1250 0.00000
21.0000 35.1250 0.00000
21.0000 35.1250 0.00000
21.0000 37.1094 0.00000
21.0000 37.1094 0.00000
21.0000 37.1094 0.00000
21.0000 39.0937 0.00000
21.0000 39.0937 0.00000
21.0000 39.0937 0.00000
21.0000 41.0781 0.00000
21.0000 41.0781 0.00000
21.0000 41.0781 0.00000
21.0000 43.0625 0.00000
21.0000 43.0625 0.00000
21.0000 43.0625 0.00000
21.0000 45.0469 0.00000
21.0000 45.0469 0.00000
21.0000 45.0469 0.00000
21.0000 47.0313 0.00000
21.0000 47.0313 0.00000
21.0000 47.0313 0.00000
21.0000 49.0156 0.00000
21.0000 49.0156 0.00000
21.0000 49.0156 0.00000
24.0000 23.8750 0.00000
24.0000 23.8750 0.00000
24.0000 23.8750 0.00000
24.0000 25.7500 0.00000
24.0000 25.7500 0.00000
24.0000 25.7500 0.00000
24.0000 27.6250 0.00000
24.0000 27.6250 0.00000
24.0000 27.6250 0.00000
24.0000 29.5000 0.00000
24.0000 29.5000 0.00000
24.0000 29.5000 0.00000
24.0000 31.3750 0.00000
24.0000 31.3750 0.00000
24.0000 31.3750 0.00000
24.0000 33.2500 0.00000
24.0000 33.2500 0.00000
24.0000 33.2500 0.00000
24.0000 35.1250 0.00000
24.0000 35.1250 0.00000
24.0000 35.1250 0.00000
24.0000 37.0000 0.00000
24.0000 37.0000 0.00000
24.0000 37.0000 0.00000
24.0000 38.8750 0.00000
24.0000 38.8750 0.00000
24.0000 38.8750 0.00000
24.0000 40.7500 0.00000
24.0000 40.7500 0.00000
24.0000 40.7500 0.00000
24.0000 42.6250 0.00000
24.0000 42.6250 0.00000
24.0000 42.6250 0.00000
24.0000 44.5000 0.00000
24.0000 44.5000 0.00000
24.0000 44.5000 0.00000
24.0000 46.3750 0.00000
24.0000 46.3750 0.00000
24.0000 46.3750 0.00000
24.0000 48.2500 0.00000
24.0000 48.2500 0.00000
24.0000 48.2500 0.00000
24.0000 50.1250 0.00000
24.0000 50.1250 0.00000
24.0000 50.1250 0.00000
27.0000 26.5156 0.00000
27.0000 26.5156 0.00000
27.0000 26.5156 0.00000
27.0000 28.2812 0.00000
27.0000 28.2812 0.00000
27.0000 28.2812 0.00000
27.0000 30.0469 0.00000
27.0000 30.0469 0.00000
27.0000 30.0469 0.00000
27.0000 31.8125 0.00000
27.0000 31.8125 0.00000
27.0000 31.8125 0.00000
27.0000 33.5781 0.00000
27.0000 33.5781 0.00000
27.0000 33.5781 0.00000
27.0000 35.3437 0.00000
27.0000 35.3437 0.00000
27.0000 35.3437 0.00000
27.0000 37.1094 0.00000
27.0000 37.1094 0.00000
27.0000 37.1094 0.00000
27.0000 38.8750 0.00000
27.0000 38.8750 0.00000
27.0000 38.8750 0.00000
27.0000 40.6406 0.00000
27.0000 40.6406 0.00000
27.0000 40.6406 0.00000
27.0000 42.4062 0.00000
27.0000 42.4062 0.00000
27.0000 42.4062 0.00000
27.0000 44.1719 0.00000
27.0000 44.1719 0.00000
27.0000 44.1719 0.00000
27.0000 45.9375 0.00000
27.0000 45.9375 0.00000
27.0000 45.9375 0.00000
27.0000 47.7031 0.00000
27.0000 47.7031 0.00000
27.0000 47.7031 0.00000
27.0000 49.4688 0.00000
27.0000 49.4688 0.00000
27.0000 49.4688 0.00000
27.0000 51.2344 0.00000
27.0000 51.2344 0.00000
27.0000 51.2344 0.00000
30.0000 29.1562 0.00000
30.0000 29.1562 0.00000
30.0000 29.1562 0.00000
30.0000 30.8125 0.00000
30.0000 30.8125 0.00000
30.0000 30.8125 0.00000
30.0000 32.4687 0.00000
30.0000 32.4687 0.00000
30.0000 32.4687 0.00000
30.0000 34.1250 0.00000
30.0000 34.1250 0.00000
30.0000 34.1250 0.00000
30.0000 35.7812 0.00000
30.0000 35.7812 0.00000
30.0000 35.7812 0.00000
30.0000 37.4375 0.00000
30.0000 37.4375 0.00000
30.0000 37.4375 0.00000
30.0000 39.0937 0.00000
30.0000 39.0937 0.00000
30.0000 39.0937 0.00000
30.0000 40.7500 0.00000
30.0000 40.7500 0.00000
30.0000 40.7500 0.00000
30.0000 42.4062 0.00000
30.0000 42.4062 0.00000
30.0000 42.4062 0.00000
30.0000 44.0625 0.00000
30.0000 44.0625 0.00000
30.0000 44.0625 0.00000
30.0000 45.7187 0.00000
30.0000 45.7187 0.00000
30.0000 45.7187 0.00000
30.0000 47.3750 0.00000
30.0000 47.3750 0.00000
30.0000 47.3750 0.00000
30.0000 49.0312 0.00000
30.0000 49.0312 0.00000
30.0000 49.0312 0.00000
30.0000 50.6875 0.00000
30.0000 50.6875 0.00000
30.0000 50.6875 0.00000
30.0000 52.3438 0.00000
30.0000 52.3438 0.00000
30.0000 52.3438 0.00000
33.0000 31.7969 0.00000
33.0000 31.7969 0.00000
33.0000 31.7969 0.00000
33.0000 33.3437 0.00000
33.0000 33.3437 0.00000
33.0000 33.3437 0.00000
33.0000 34.8906 0.00000
33.0000 34.8906 0.00000
33.0000 34.8906 0.00000
33.0000 36.4375 0.00000
33.0000 36.4375 0.00000
33.0000 36.4375 0.00000
33.0000 37.9844 0.00000
33.0000 37.9844 0.00000
33.0000 37.9844 0.00000
33.0000 39.5312 0.00000
33.0000 39.5312 0.00000
33.0000 39.5312 0.00000
33.0000 41.0781 0.00000
33.0000 41.0781 0.00000
33.0000 41.0781 0.00000
33.0000 42.6250 0.00000
33.0000 42.6250 0.00000
33.0000 42.6250 0.00000
33.0000 44.1719 0.00000
33.0000 44.1719 0.00000
33.0000 44.1719 0.00000
33.0000 45.7187 0.00000
33.0000 45.7187 0.00000
33.0000 45.7187 0.00000
33.0000 47.2656 0.00000
33.0000 47.2656 0.00000
33.0000 47.2656 0.00000
33.0000 48.8125 0.00000
33.0000 48.8125 0.00000
33.0000 48.8125 0.00000
33.0000 50.3594 0.00000
33.0000 50.3594 0.00000
33.0000 50.3594 0.00000
33.0000 51.9062 0.00000
33.0000 51.9062 0.00000
33.0000 51.9062 0.00000
33.0000 53.4531 0.00000
33.0000 53.4531 0.00000
33.0000 53.4531 0.00000
36.0000 34.4375 0.00000
36.0000 34.4375 0.00000
36.0000 34.4375 0.00000
36.0000 35.8750 0.00000
36.0000 35.8750 0.00000
36.0000 35.8750 0.00000
36.0000 37.3125 0.00000
36.0000 37.3125 0.00000
36.0000 37.3125 0.00000
36.0000 38.7500 0.00000
36.0000 38.7500 0.00000
36.0000 38.7500 0.00000
36.0000 40.1875 0.00000
36.0000 40.1875 0.00000
36.0000 40.1875 0.00000
36.0000 41.6250 0.00000
36.0000 41.6250 0.00000
36.0000 41.6250 0.00000
36.0000 43.0625 0.00000
36.0000 43.0625 0.00000
36.0000 43.0625 0.00000
36.0000 44.5000 0.00000
36.0000 44.5000 0.00000
36.0000 44.5000 0.00000
36.0000 45.9375 0.00000
36.0000 45.9375 0.00000
36.0000 45.9375 0.00000
36.0000 47.3750 0.00000
36.0000 47.3750 0.00000
36.0000 47.3750 0.00000
36.0000 48.8125 0.00000
36.0000 48.8125 0.00000
36.0000 48.8125 0.00000
36.0000 50.2500 0.00000
36.0000 50.2500 0.00000
36.0000 50.2500 0.00000
36.0000 51.6875 0.00000
36.0000 51.6875 0.00000
36.0000 51.6875 0.00000
36.0000 53.1250 0.00000
36.0000 53.1250 0.00000
36.0000 53.1250 0.00000
36.0000 54.5625 0.00000
36.0000 54.5625 0.00000
36.0000 54.5625 0.00000
39.0000 37.0781 0.00000
39.0000 37.0781 0.00000
39.0000 37.0781 0.00000
39.0000 38.4062 0.00000
39.0000 38.4062 0.00000
39.0000 38.4062 0.00000
39.0000 39.7344 0.00000
39.0000 39.7344 0.00000
39.0000 39.7344 0.00000
39.0000 41.0625 0.00000
39.0000 41.0625 0.00000
39.0000 41.0625 0.00000
39.0000 42.3906 0.00000
39.0000 42.3906 0.00000
39.0000 42.3906 0.00000
39.0000 43.7187 0.00000
39.0000 43.7187 0.00000
39.0000 43.7187 0.00000
39.0000 45.0469 0.00000
39.0000 45.0469 0.00000
39.0000 45.0469 0.00000
39.0000 46.3750 0.00000
39.0000 46.3750 0.00000
39.0000 46.3750 0.00000
39.0000 47.7031 0.00000
39.0000 47.7031 0.00000
39.0000 47.7031 0.00000
39.0000 49.0312 0.00000
39.0000 49.0312 0.00000
39.0000 49.0312 0.00000
39.0000 50.3594 0.00000
39.0000 50.3594 0.00000
39.0000 50.3594 0.00000
39.0000 51.6875 0.00000
39.0000 51.6875 0.00000
39.0000 51.6875 0.00000
39.0000 53.0156 0.00000
39.0000 53.0156 0.00000
39.0000 53.0156 0.00000
39.0000 54.3438 0.00000
39.0000 54.3438 0.00000
39.0000 54.3438 0.00000
39.0000 55.6719 0.00000
39.0000 55.6719 0.00000
39.0000 55.6719 0.00000
42.0000 39.7187 0.00000
42.0000 39.7187 0.00000
42.0000 39.7187 0.00000
42.0000 40.9375 0.00000
42.0000 40.9375 0.00000
42.0000 40.9375 0.00000
42.0000 42.1562 0.00000
42.0000 42.1562 0.00000
42.0000 42.1562 0.00000
42.0000 43.3750 0.00000
42.0000 43.3750 0.00000
42.0000 43.3750 0.00000
42.0000 44.5937 0.00000
42.0000 44.5937 0.00000
42.0000 44.5937 0.00000
42.0000 45.8125 0.00000
42.0000 45.8125 0.00000
42.0000 45.8125 0.00000
42.0000 47.0312 0.00000
42.0000 47.0312 0.00000
42.0000 47.0312 0.00000
42.0000 48.2500 0.00000
42.0000 48.2500 0.00000
42.0000 48.2500 0.00000
42.0000 49.4687 0.00000
42.0000 49.4687 0.00000
42.0000 49.4687 0.00000
42.0000 50.6875 0.00000
42.0000 50.6875 0.00000
42.0000 50.6875 0.00000
42.0000 51.9062 0.00000
42.0000 51.9062 0.00000
42.0000 51.9062 0.00000
42.0000 53.1250 0.00000
42.0000 53.1250 0.00000
42.0000 53.1250 0.00000
42.0000 54.3438 0.00000
42.0000 54.3438 0.00000
42.0000 54.3438 0.00000
42.0000 55.5625 0.00000
42.0000 55.5625 0.00000
42.0000 55.5625 0.00000
42.0000 56.7813 0.00000
42.0000 56.7813 0.00000
42.0000 56.7813 0.00000
45.0000 42.3594 0.00000
45.0000 42.3594 0.00000
45.0000 42.3594 0.00000
45.0000 43.4687 0.00000
45.0000 43.4687 0.00000
45.0000 43.4687 0.00000
45.0000 44.5781 0.00000
45.0000 44.5781 0.00000
45.0000 44.5781 0.00000
45.0000 45.6875 0.00000
45.0000 45.6875 0.00000
45.0000 45.6875 0.00000
45.0000 46.7969 0.00000
45.0000 46.7969 0.00000
45.0000 46.7969 0.00000
45.0000 47.9062 0.00000
45.0000 47.9062 0.00000
45.0000 47.9062 0.00000
45.0000 49.0156 0.00000
45.0000 49.0156 0.00000
45.0000 49.0156 0.00000
45.0000 50.1250 0.00000
45.0000 50.1250 0.00000
45.0000 50.1250 0.00000
45.0000 51.2344 0.00000
45.0000 51.2344 0.00000
45.0000 51.2344 0.00000
45.0000 52.3438 0.00000
45.0000 52.3438 0.00000
45.0000 52.3438 0.00000
45.0000 53.4531 0.00000
45.0000 53.4531 0.00000
45.0000 53.4531 0.00000
45.0000 54.5625 0.00000
45.0000 54.5625 0.00000
45.0000 54.5625 0.00000
45.0000 55.6719 0.00000
45.0000 55.6719 0.00000
45.0000 55.6719 0.00000
45.0000 56.7813 0.00000
45.0000 56.7813 0.00000
45.0000 56.7813 0.00000
45.0000 57.8906 0.00000
45.0000 57.8906 0.00000
45.0000 57.8906 0.00000
3.00000 5.39062 5.00000
3.00000 5.39062 5.00000
3.00000 5.39062 5.00000
3.00000 8.03125 5.00000
3.00000 8.03125 5.00000
3.00000 8.03125 5.00000
3.00000 10.6719 5.00000
3.00000 10.6719 5.00000
3.00000 10.6719 5.00000
3.00000 13.3125 5.00000
3.00000 13.3125 5.00000
3.00000 13.3125 5.00000
3.00000 15.9531 5.00000
3.00000 15.9531 5.00000
3.00000 15.9531 5.00000
3.00000 18.5938 5.00000
3.00000 18.5938 5.00000
3.00000 18.5938 5.00000
3.00000 21.2344 5.00000
3.00000 21.2344 5.00000
3.00000 21.2344 5.00000
3.00000 23.8750 5.00000
3.00000 23.8750 5.00000
3.00000 23.8750 5.00000
3.00000 26.5156 5.00000
3.00000 26.5156 5.00000
3.00000 26.5156 5.00000
3.00000 29.1563 5.00000
3.00000 29.1563 5.00000
3.00000 29.1563 5.00000
3.00000 31.7969 5.00000
3.00000 31.7969 5.00000
3.00000 31.7969 5.00000
3.00000 34.4375 5.00000
3.00000 34.4375 5.00000
3.00000 34.4375 5.00000
3.00000 37.0781 5.00000
3.00000 37.0781 5.00000
3.00000 37.0781 5.00000
3.00000 39.7187 5.00000
3.00000 39.7187 5.00000
3.00000 39.7187 5.00000
3.00000 42.3594 5.00000
3.00000 42.3594 5.00000
3.00000 42.3594 5.00000
6.00000 8.03125 5.00000
6.00000 8.03125 5.00000
6.00000 8.03125 5.00000
6.00000 10.5625 5.00000
6.00000 10.5625 5.00000
6.00000 10.5625 5.00000
6.00000 13.0938 5.00000
6.00000 13.0938 5.00000
6.00000 13.0938 5.00000
6.00000 15.6250 5.00000
6.00000 15.6250 5.00000
6.00000 15.6250 5.00000
6.00000 18.1563 5.00000
6.00000 18.1563 5.00000
6.00000 18.1563 5.00000
6.00000 20.6875 5.00000
6.00000 20.6875 5.00000
6.00000 20.6875 5.00000
6.00000 23.2188 5.00000
6.00000 23.2188 5.00000
6.00000 23.2188 5.00000
6.00000 25.7500 5.00000
6.00000 25.7500 5.00000
6.00000 25.7500 5.00000
6.00000 28.2813 5.00000
6.00000 28.2813 5.00000
6.00000 28.2813 5.00000
6.00000 30.8125 5.00000
6.00000 30.8125 5.00000
6.00000 30.8125 5.00000
6.00000 33.3437 5.00000
6.00000 33.3437 5.00000
6.00000 33.3437 5.00000
6.00000 35.8750 5.00000
6.00000 35.8750 5.00000
6.00000 35.8750 5.00000
6.00000 38.4062 5.00000
6.00000 38.4062 5.00000
6.00000 38.4062 5.00000
6.00000 40.9375 5.00000
6.00000 40.9375 5.00000
6.00000 40.9375 5.00000
6.00000 43.4687 5.00000
6.00000 43.4687 5.00000
6.00000 43.4687 5.00000
9.00000 10.6719 5.00000
9.00000 10.6719 5.00000
9.00000 10.6719 5.00000
9.00000 13.0937 5.00000
9.00000 13.0937 5.00000
9.00000 13.0937 5.00000
9.00000 15.5156 5.00000
9.00000 15.5156 5.00000
9.00000 15.5156 5.00000
9.00000 17.9375 5.00000
9.00000 17.9375 5.00000
9.00000 17.9375 5.00000
9.00000 20.3594 5.00000
9.00000 20.3594 5.00000
9.00000 20.3594 5.00000
9.00000 22.7813 5.00000
9.00000 22.7813 5.00000
9.00000 22.7813 5.00000
9.00000 25.2031 5.00000
9.00000 25.2031 5.00000
9.00000 25.2031 5.00000
9.00000 27.6250 5.00000
9.00000 27.6250 5.00000
9.00000 27.6250 5.00000
9.00000 30.0469 5.00000
9.00000 30.0469 5.00000
9.00000 30.0469 5.00000
9.00000 32.4687 5.00000
9.00000 32.4687 5.00000
9.00000 32.4687 5.00000
9.00000 34.8906 5.00000
9.00000 34.8906 5.00000
9.00000 34.8906 5.00000
9.00000 37.3125 5.00000
9.00000 37.3125 5.00000
9.00000 37.3125 5.00000
9.00000 39.7344 5.00000
9.00000 39.7344 5.00000
9.00000 39.7344 5.00000
9.00000 42.1562 5.00000
9.00000 42.1562 5.00000
9.00000 42.1562 5.00000
9.00000 44.5781 5.00000
9.00000 44.5781 5.00000
9.00000 44.5781 5.00000
12.0000 13.3125 5.00000
12.0000 13.3125 5.00000
12.0000 13.3125 5.00000
12.0000 15.6250 5.00000
12.0000 15.6250 5.00000
12.0000 15.6250 5.00000
12.0000 17.9375 5.00000
12.0000 17.9375 5.00000
12.0000 17.9375 5.00000
12.0000 20.2500 5.00000
12.0000 20.2500 5.00000
12.0000 20.2500 5.00000
12.0000 22.5625 5.00000
12.0000 22.5625 5.00000
12.0000 22.5625 5.00000
12.0000 24.8750 5.00000
12.0000 24.8750 5.00000
12.0000 24.8750 5.00000
12.0000 27.1875 5.00000
12.0000 27.1875 5.00000
12.0000 27.1875 5.00000
12.0000 29.5000 5.00000
12.0000 29.5000 5.00000
12.0000 29.5000 5.00000
12.0000 31.8125 5.00000
12.0000 31.8125 5.00000
12.0000 31.8125 5.00000
12.0000 34.1250 5.00000
12.0000 34.1250 5.00000
12.0000 34.1250 5.00000
12.0000 36.4375 5.00000
12.0000 36.4375 5.00000
12.0000 36.4375 5.00000
12.0000 38.7500 5.00000
12.0000 38.7500 5.00000
12.0000 38.7500 5.00000
12.0000 41.0625 5.00000
12.0000 41.0625 5.00000
12.0000 41.0625 5.00000
12.0000 43.3750 5.00000
12.0000 43.3750 5.00000
12.0000 43.3750 5.00000
12.0000 45.6875 5.00000
12.0000 45.6875 5.00000
12.0000 45.6875 5.00000
15.0000 15.9531 5.00000
15.0000 15.9531 5.00000
15.0000 15.9531 5.00000
15.0000 18.1562 5.00000
15.0000 18.1562 5.00000
15.0000 18.1562 5.00000
15.0000 20.3594 5.00000
15.0000 20.3594 5.00000
15.0000 20.3594 5.00000
15.0000 22.5625 5.00000
15.0000 22.5625 5.00000
15.0000 22.5625 5.00000
15.0000 24.7656 5.00000
15.0000 24.7656 5.00000
15.0000 24.7656 5.00000
15.0000 26.9687 5.00000
15.0000 26.9687 5.00000
15.0000 26.9687 5.00000
15.0000 29.1719 5.00000
15.0000 29.1719 5.00000
15.0000 29.1719 5.00000
15.0000 31.3750 5.00000
15.0000 31.3750 5.00000
15.0000 31.3750 5.00000
15.0000 33.5781 5.00000
15.0000 33.5781 5.00000
15.0000 33.5781 5.00000
15.0000 35.7812 5.00000
15.0000 35.7812 5.00000
15.0000 35.7812 5.00000
15.0000 37.9844 5.00000
15.0000 37.9844 5.00000
15.0000 37.9844 5.00000
15.0000 40.1875 5.00000
15.0000 40.1875 5.00000
15.0000 40.1875 5.00000
15.0000 42.3906 5.00000
15.0000 42.3906 5.00000
15.0000 42.3906 5.00000
15.0000 44.5937 5.00000
15.0000 44.5937 5.00000
15.0000 44.5937 5.00000
15.0000 46.7969 5.00000
15.0000 46.7969 5.00000
15.0000 46.7969 5.00000
18.0000 18.5937 5.00000
18.0000 18.5937 5.00000
18.0000 18.5937 5.00000
18.0000 20.6875 5.00000
18.0000 20.6875 5.00000
18.0000 20.6875 5.00000
18.0000 22.7812 5.00000
18.0000 22.7812 5.00000
18.0000 22.7812 5.00000
18.0000 24.8750 5.00000
18.0000 24.8750 5.00000
18.0000 24.8750 5.00000
18.0000 26.9687 5.00000
18.0000 26.9687 5.00000
18.0000 26.9687 5.00000
18.0000 29.0625 5.00000
18.0000 29.0625 5.00000
18.0000 29.0625 5.00000
18.0000 31.1562 5.00000
18.0000 31.1562 5.00000
18.0000 31.1562 5.00000
18.0000 33.2500 5.00000
18.0000 33.2500 5.00000
18.0000 33.2500 5.00000
18.0000 35.3437 5.00000
18.0000 35.3437 5.00000
18.0000 35.3437 5.00000
18.0000 37.4375 5.00000
18.0000 37.4375 5.00000
18.0000 37.4375 5.00000
18.0000 39.5312 5.00000
18.0000 39.5312 5.00000
18.0000 39.5312 5.00000
18.0000 41.6250 5.00000
18.0000 41.6250 5.00000
18.0000 41.6250 5.00000
18.0000 43.7187 5.00000
18.0000 43.7187 5.00000
18.0000 43.7187 5.00000
18.0000 45.8125 5.00000
18.0000 45.8125 5.00000
18.0000 45.8125 5.00000
18.0000 47.9063 5.00000
18.0000 47.9063 5.00000
18.0000 47.9063 5.00000
21.0000 21.2344 5.00000
21.0000 21.2344 5.00000
21.0000 21.2344 5.00000
21.0000 23.2187 5.00000
21.0000 23.2187 5.00000
21.0000 23.2187 5.00000
21.0000 25.2031 5.00000
21.0000 25.2031 5.00000
21.0000 25.2031 5.00000
21.0000 27.1875 5.00000
21.0000 27.1875 5.00000
21.0000 27.1875 5.00000
21.0000 29.1719 5.00000
21.0000 29.1719 5.00000
21.0000 29.1719 5.00000
21.0000 31.1562 5.00000
21.0000 31.1562 5.00000
21.0000 31.1562 5.00000
21.0000 33.1406 5.00000
21.0000 33.1406 5.00000
21.0000 33.1406 5.00000
21.0000 35.1250 5.00000
21.0000 35.1250 5.00000
21.0000 35.1250 5.00000
21.0000 37.1094 5.00000
21.0000 37.1094 5.00000
21.0000 37.1094 5.00000
21.0000 39.0937 5.00000
21.0000 39.0937 5.00000
21.0000 39.0937 5.00000
21.0000 41.0781 5.00000
21.0000 41.0781 5.00000
21.0000 41.0781 5.00000
21.0000 43.0625 5.00000
21.0000 43.0625 5.00000
21.0000 43.0625 5.00000
21.0000 45.0469 5.00000
21.0000 45.0469 5.00000
21.0000 45.0469 5.00000
21.0000 47.0313 5.00000
21.0000 47.0313 5.00000
21.0000 47.0313 5.00000
21.0000 49.0156 5.00000
21.0000 49.0156 5.00000
21.0000 49.0156 5.00000
24.0000 23.8750 5.00000
24.0000 23.8750 5.00000
24.0000 23.8750 5.00000
24.0000 25.7500 5.00000
24.0000 25.7500 5.00000
24.0000 25.7500 5.00000
24.0000 27.6250 5.00000
24.0000 27.6250 5.00000
24.0000 27.6250 5.00000
24.0000 29.5000 5.00000
24.0000 29.5000 5.00000
24.0000 29.5000 5.00000
24.0000 31.3750 5.00000
24.0000 31.3750 5.00000
24.0000 31.3750 5.00000
24.0000 33.2500 5.00000
24.0000 33.2500 5.00000
24.0000 33.2500 5.00000
24.0000 35.1250 5.00000
24.0000 35.1250 5.00000
24.0000 35.1250 5.00000
24.0000 37.0000 5.00000
24.0000 37.0000 5.00000
24.0000 37.0000 5.00000
24.0000 38.8750 5.00000
24.0000 38.8750 5.00000
24.0000 38.8750 5.00000
24.0000 40.7500 5.00000
24.0000 40.7500 5.00000
24.0000 40.7500 5.00000
24.0000 42.6250 5.00000
24.0000 42.6250 5.00000
24.0000 42.6250 5.00000
24.0000 44.5000 5.00000
24.0000 44.5000 5.00000
24.0000 44.5000 5.00000
24.0000 46.3750 5.00000
24.0000 46.3750 5.00000
24.0000 46.3750 5.00000
24.0000 48.2500 5.00000
24.0000 48.2500 5.00000
24.0000 48.2500 5.00000
24.0000 50.1250 5.00000
24.0000 50.1250 5.00000
24.0000 50.1250 5.00000
27.0000 26.5156 5.00000
27.0000 26.5156 5.00000
27.0000 26.5156 5.00000
27.0000 28.2812 5.00000
27.0000 28.2812 5.00000
27.0000 28.2812 5.00000
27.0000 30.0469 5.00000
27.0000 30.0469 5.00000
27.0000 30.0469 5.00000
27.0000 31.8125 5.00000
27.0000 31.8125 5.00000
27.0000 31.8125 5.00000
27.0000 33.5781 5.00000
27.0000 33.5781 5.00000
27.0000 33.5781 5.00000
27.0000 35.3437 5.00000
27.0000 35.3437 5.00000
27.0000 35.3437 5.00000
27.0000 37.1094 5.00000
27.0000 37.1094 5.00000
27.0000 37.1094 5.00000
27.0000 38.8750 5.00000
27.0000 38.8750 5.00000
27.0000 38.8750 5.00000
27.0000 40.6406 5.00000
27.0000 40.6406 5.00000
27.0000 40.6406 5.00000
27.0000 42.4062 5.00000
27.0000 42.4062 5.00000
27.0000 42.4062 5.00000
27.0000 44.1719 5.00000
27.0000 44.1719 5.00000
27.0000 44.1719 5.00000
27.0000 45.9375 5.00000
27.0000 45.9375 5.00000
27.0000 45.9375 5.00000
27.0000 47.7031 5.00000
27.0000 47.7031 5.00000
27.0000 47.7031 5.00000
27.0000 49.4688 5.00000
27.0000 49.4688 5.00000
27.0000 49.4688 5.00000
27.0000 51.2344 5.00000
27.0000 51.2344 5.00000
27.0000 51.2344 5.00000
30.0000 29.1562 5.00000
30.0000 29.1562 5.00000
30.0000 29.1562 5.00000
30.0000 30.8125 5.00000
30.0000 30.8125 5.00000
30.0000 30.8125 5.00000
30.0000 32.4687 5.00000
30.0000 32.4687 5.00000
30.0000 32.4687 5.00000
30.0000 34.1250 5.00000
30.0000 34.1250 5.00000
30.0000 34.1250 5.00000
30.0000 35.7812 5.00000
30.0000 35.7812 5.00000
30.0000 35.7812 5.00000
30.0000 37.4375 5.00000
30.0000 37.4375 5.00000
30.0000 37.4375 5.00000
30.0000 39.0937 5.00000
30.0000 39.0937 5.00000
30.0000 39.0937 5.00000
30.0000 40.7500 5.00000
30.0000 40.7500 5.00000
30.0000 40.7500 5.00000
30.0000 42.4062 5.00000
30.0000 42.4062 5.00000
30.0000 42.4062 5.00000
30.0000 44.0625 5.00000
30.0000 44.0625 5.00000
30.0000 44.0625 5.00000
30.0000 45.7187 5.00000
30.0000 45.7187 5.00000
30.0000 45.7187 5.00000
30.0000 47.3750 5.00000
30.0000 47.3750 5.00000
30.0000 47.3750 5.00000
30.0000 49.0312 5.00000
30.0000 49.0312 5.00000
30.0000 49.0312 5.00000
30.0000 50.6875 5.00000
30.0000 50.6875 5.00000
30.0000 50.6875 5.00000
30.0000 52.3438 5.00000
30.0000 52.3438 5.00000
30.0000 52.3438 5.00000
33.0000 31.7969 5.00000
33.0000 31.7969 5.00000
33.0000 31.7969 5.00000
33.0000 33.3437 5.00000
33.0000 33.3437 5.00000
33.0000 33.3437 5.00000
33.0000 34.8906 5.00000
33.0000 34.8906 5.00000
33.0000 34.8906 5.00000
33.0000 36.4375 5.00000
33.0000 36.4375 5.00000
33.0000 36.4375 5.00000
33.0000 37.9844 5.00000
33.0000 37.9844 5.00000
33.0000 37.9844 5.00000
33.0000 39.5312 5.00000
33.0000 39.5312 5.00000
33.0000 39.5312 5.00000
33.0000 41.0781 5.00000
33.0000 41.0781 5.00000
33.0000 41.0781 5.00000
33.0000 42.6250 5.00000
33.0000 42.6250 5.00000
33.0000 42.6250 5.00000
33.0000 44.1719 5.00000
33.0000 44.1719 5.00000
33.0000 44.1719 5.00000
33.0000 45.7187 5.00000
33.0000 45.7187 5.00000
33.0000 45.7187 5.00000
33.0000 47.2656 5.00000
33.0000 47.2656 5.00000
33.0000 47.2656 5.00000
33.0000 48.8125 5.00000
33.0000 48.8125 5.00000
33.0000 48.8125 5.00000
33.0000 50.3594 5.00000
33.0000 50.3594 5.00000
33.0000 50.3594 5.00000
33.0000 51.9062 5.00000
33.0000 51.9062 5.00000
33.0000 51.9062 5.00000
33.0000 53.4531 5.00000
33.0000 53.4531 5.00000
33.0000 53.4531 5.00000
36.0000 34.4375 5.00000
36.0000 34.4375 5.00000
36.0000 34.4375 5.00000
36.0000 35.8750 5.00000
36.0000 35.8750 5.00000
36.0000 35.8750 5.00000
36.0000 37.3125 5.00000
36.0000 37.3125 5.00000
36.0000 37.3125 5.00000
36.0000 38.7500 5.00000
36.0000 38.7500 5.00000
36.0000 38.7500 5.00000
36.0000 40.1875 5.00000
36.0000 40.1875 5.00000
36.0000 40.1875 5.00000
36.0000 41.6250 5.00000
36.0000 41.6250 5.00000
36.0000 41.6250 5.00000
36.0000 43.0625 5.00000
36.0000 43.0625 5.00000
36.0000 43.0625 5.00000
36.0000 44.5000 5.00000
36.0000 44.5000 5.00000
36.0000 44.5000 5.00000
36.0000 45.9375 5.00000
36.0000 45.9375 5.00000
36.0000 45.9375 5.00000
36.0000 47.3750 5.00000
36.0000 47.3750 5.00000
36.0000 47.3750 5.00000
36.0000 48.8125 5.00000
36.0000 48.8125 5.00000
36.0000 48.8125 5.00000
36.0000 50.2500 5.00000
36.0000 50.2500 5.00000
36.0000 50.2500 5.00000
36.0000 51.6875 5.00000
36.0000 51.6875 5.00000
36.0000 51.6875 5.00000
36.0000 53.1250 5.00000
36.0000 53.1250 5.00000
36.0000 53.1250 5.00000
36.0000 54.5625 5.00000
36.0000 54.5625 5.00000
36.0000 54.5625 5.00000
39.0000 37.0781 5.00000
39.0000 37.0781 5.00000
39.0000 37.0781 5.00000
39.0000 38.4062 5.00000
39.0000 38.4062 5.00000
39.0000 38.4062 5.00000
39.0000 39.7344 5.00000
39.0000 39.7344 5.00000
39.0000 39.7344 5.00000
39.0000 41.0625 5.00000
39.0000 41.0625 5.00000
39.0000 41.0625 5.00000
39.0000 42.3906 5.00000
39.0000 42.3906 5.00000
39.0000 42.3906 5.00000
39.0000 43.7187 5.00000
39.0000 43.7187 5.00000
39.0000 43.7187 5.00000
39.0000 45.0469 5.00000
39.0000 45.0469 5.00000
39.0000 45.0469 5.00000
39.0000 46.3750 5.00000
39.0000 46.3750 5.00000
39.0000 46.3750 5.00000
39.0000 47.7031 5.00000
39.0000 47.7031 5.00000
39.0000 47.7031 5.00000
39.0000 49.0312 5.00000
39.0000 49.0312 5.00000
39.0000 49.0312 5.00000
39.0000 50.3594 5.00000
39.0000 50.3594 5.00000
39.0000 50.3594 5.00000
39.0000 51.6875 5.00000
39.0000 51.6875 5.00000
39.0000 51.6875 5.00000
39.0000 53.0156 5.00000
39.0000 53.0156 5.00000
39.0000 53.0156 5.00000
39.0000 54.3438 5.00000
39.0000 54.3438 5.00000
39.0000 54.3438 5.00000
39.0000 55.6719 5.00000
39.0000 55.6719 5.00000
39.0000 55.6719 5.00000
42.0000 39.7187 5.00000
42.0000 39.7187 5.00000
42.0000 39.7187 5.00000
42.0000 40.9375 5.00000
42.0000 40.9375 5.00000
42.0000 40.9375 5.00000
42.0000 42.1562 5.00000
42.0000 42.1562 5.00000
42.0000 42.1562 5.00000
42.0000 43.3750 5.00000
42.0000 43.3750 5.00000
42.0000 43.3750 5.00000
42.0000 44.5937 5.00000
42.0000 44.5937 5.00000
42.0000 44.5937 5.00000
42.0000 45.8125 5.00000
42.0000 45.8125 5.00000
42.0000 45.8125 5.00000
42.0000 47.0312 5.00000
42.0000 47.0312 5.00000
42.0000 47.0312 5.00000
42.0000 48.2500 5.00000
42.0000 48.2500 5.00000
42.0000 48.2500 5.00000
42.0000 49.4687 5.00000
42.0000 49.4687 5.00000
42.0000 49.4687 5.00000
42.0000 50.6875 5.00000
42.0000 50.6875 5.00000
42.0000 50.6875 5.00000
42.0000 51.9062 5.00000
42.0000 51.9062 5.00000
42.0000 51.9062 5.00000
42.0000 53.1250 5.00000
42.0000 53.1250 5.00000
42.0000 53.1250 5.00000
42.0000 54.3438 5.00000
42.0000 54.3438 5.00000
42.0000 54.3438 5.00000
42.0000 55.5625 5.00000
42.0000 55.5625 5.00000
42.0000 55.5625 5.00000
42.0000 56.7813 5.00000
42.0000 56.7813 5.00000
42.0000 56.7813 5.00000
45.0000 42.3594 5.00000
45.0000 42.3594 5.00000
45.0000 42.3594 5.00000
45.0000 43.4687 5.00000
45.0000 43.4687 5.00000
45.0000 43.4687 5.00000
45.0000 44.5781 5.00000
45.0000 44.5781 5.00000
45.0000 44.5781 5.00000
45.0000 45.6875 5.00000
45.0000 45.6875 5.00000
45.0000 45.6875 5.00000
45.0000 46.7969 5.00000
45.0000 46.7969 5.00000
45.0000 46.7969 5.00000
45.0000 47.9062 5.00000
45.0000 47.9062 5.00000
45.0000 47.9062 5.00000
45.0000 49.0156 5.00000
45.0000 49.0156 5.00000
45.0000 49.0156 5.00000
45.0000 50.1250 5.00000
45.0000 50.1250 5.00000
45.0000 50.1250 5.00000
45.0000 51.2344 5.00000
45.0000 51.2344 5.00000
45.0000 51.2344 5.00000
45.0000 52.3438 5.00000
45.0000 52.3438 5.00000
45.0000 52.3438 5.00000
45.0000 53.4531 5.00000
45.0000 53.4531 5.00000
45.0000 53.4531 5.00000
45.0000 54.5625 5.00000
45.0000 54.5625 5.00000
45.0000 54.5625 5.00000
45.0000 55.6719 5.00000
45.0000 55.6719 5.00000
45.0000 55.6719 5.00000
45.0000 56.7813 5.00000
45.0000 56.7813 5.00000
45.0000 56.7813 5.00000
45.0000 57.8906 5.00000
45.0000 57.8906 5.00000
45.0000 57.8906 5.00000
</DataArray>
 </Points>
<Cells> 
<DataArray  type="Int32" Name="connectivity" format="ascii">
0 8 128 67 4 68 353 127 
637 698 129 66 697 1373 354 126 
636 701 130 65 696 1376 355 125 
635 704 131 64 695 1379 356 124 
634 707 132 63 694 1382 357 123 
633 710 133 62 693 1385 358 122 
632 713 134 61 692 1388 359 121 
631 716 135 60 691 1391 360 120 
630 719 136 59 690 1394 361 119 
629 722 137 58 689 1397 362 118 
628 725 138 57 688 1400 363 117 
627 728 139 56 687 1403 364 116 
626 731 140 55 686 1406 365 115 
625 734 141 54 685 1409 366 114 
624 737 142 53 684 1412 367 113 
623 740 52 3 683 1415 112 7 
578 9 143 699 638 69 368 1374 
700 743 144 702 1375 1418 369 1377 
703 746 145 705 1378 1421 370 1380 
706 749 146 708 1381 1424 371 1383 
709 752 147 711 1384 1427 372 1386 
712 755 148 714 1387 1430 373 1389 
715 758 149 717 1390 1433 374 1392 
718 761 150 720 1393 1436 375 1395 
721 764 151 723 1396 1439 376 1398 
724 767 152 726 1399 1442 377 1401 
727 770 153 729 1402 1445 378 1404 
730 773 154 732 1405 1448 379 1407 
733 776 155 735 1408 1451 380 1410 
736 779 156 738 1411 1454 381 1413 
739 782 157 741 1414 1457 382 1416 
742 785 51 622 1417 1460 111 682 
579 10 158 744 639 70 383 1419 
745 788 159 747 1420 1463 384 1422 
748 791 160 750 1423 1466 385 1425 
751 794 161 753 1426 1469 386 1428 
754 797 162 756 1429 1472 387 1431 
757 800 163 759 1432 1475 388 1434 
760 803 164 762 1435 1478 389 1437 
763 806 165 765 1438 1481 390 1440 
766 809 166 768 1441 1484 391 1443 
769 812 167 771 1444 1487 392 1446 
772 815 168 774 1447 1490 393 1449 
775 818 169 777 1450 1493 394 1452 
778 821 170 780 1453 1496 395 1455 
781 824 171 783 1456 1499 396 1458 
784 827 172 786 1459 1502 397 1461 
787 830 50 621 1462 1505 110 681 
580 11 173 789 640 71 398 1464 
790 833 174 792 1465 1508 399 1467 
793 836 175 795 1468 1511 400 1470 
796 839 176 798 1471 1514 401 1473 
799 842 177 801 1474 1517 402 1476 
802 845 178 804 1477 1520 403 1479 
805 848 179 807 1480 1523 404 1482 
808 851 180 810 1483 1526 405 1485 
811 854 181 813 1486 1529 406 1488 
814 857 182 816 1489 1532 407 1491 
817 860 183 819 1492 1535 408 1494 
820 863 184 822 1495 1538 409 1497 
823 866 185 825 1498 1541 410 1500 
826 869 186 828 1501 1544 411 1503 
829 872 187 831 1504 1547 412 1506 
832 875 49 620 1507 1550 109 680 
581 12 188 834 641 72 413 1509 
835 878 189 837 1510 1553 414 1512 
838 881 190 840 1513 1556 415 1515 
841 884 191 843 1516 1559 416 1518 
844 887 192 846 1519 1562 417 1521 
847 890 193 849 1522 1565 418 1524 
850 893 194 852 1525 1568 419 1527 
853 896 195 855 1528 1571 420 1530 
856 899 196 858 1531 1574 421 1533 
859 902 197 861 1534 1577 422 1536 
862 905 198 864 1537 1580 423 1539 
865 908 199 867 1540 1583 424 1542 
868 911 200 870 1543 1586 425 1545 
871 914 201 873 1546 1589 426 1548 
874 917 202 876 1549 1592 427 1551 
877 920 48 619 1552 1595 108 679 
582 13 203 879 642 73 428 1554 
880 923 204 882 1555 1598 429 1557 
883 926 205 885 1558 1601 430 1560 
886 929 206 888 1561 1604 431 1563 
889 932 207 891 1564 1607 432 1566 
892 935 208 894 1567 1610 433 1569 
895 938 209 897 1570 1613 434 1572 
898 941 210 900 1573 1616 435 1575 
901 944 211 903 1576 1619 436 1578 
904 947 212 906 1579 1622 437 1581 
907 950 213 909 1582 1625 438 1584 
910 953 214 912 1585 1628 439 1587 
913 956 215 915 1588 1631 440 1590 
916 959 216 918 1591 1634 441 1593 
919 962 217 921 1594 1637 442 1596 
922 965 47 618 1597 1640 107 678 
583 14 218 924 643 74 443 1599 
925 968 219 927 1600 1643 444 1602 
928 971 220 930 1603 1646 445 1605 
931 974 221 933 1606 1649 446 1608 
934 977 222 936 1609 1652 447 1611 
937 980 223 939 1612 1655 448 1614 
940 983 224 942 1615 1658 449 1617 
943 986 225 945 1618 1661 450 1620 
946 989 226 948 1621 1664 451 1623 
949 992 227 951 1624 1667 452 1626 
952 995 228 954 1627 1670 453 1629 
955 998 229 957 1630 1673 454 1632 
958 1001 230 960 1633 1676 455 1635 
961 1004 231 963 1636 1679 456 1638 
964 1007 232 966 1639 1682 457 1641 
967 1010 46 617 1642 1685 106 677 
584 15 233 969 644 75 458 1644 
970 1013 234 972 1645 1688 459 1647 
973 1016 235 975 1648 1691 460 1650 
976 1019 236 978 1651 1694 461 1653 
979 1022 237 981 1654 1697 462 1656 
982 1025 238 984 1657 1700 463 1659 
985 1028 239 987 1660 1703 464 1662 
988 1031 240 990 1663 1706 465 1665 
991 1034 241 993 1666 1709 466 1668 
994 1037 242 996 1669 1712 467 1671 
997 1040 243 999 1672 1715 468 1674 
1000 1043 244 1002 1675 1718 469 1677 
1003 1046 245 1005 1678 1721 470 1680 
1006 1049 246 1008 1681 1724 471 1683 
1009 1052 247 1011 1684 1727 472 1686 
1012 1055 45 616 1687 1730 105 676 
585 16 248 1014 645 76 473 1689 
1015 1058 249 1017 1690 1733 474 1692 
1018 1061 250 1020 1693 1736 475 1695 
1021 1064 251 1023 1696 1739 476 1698 
1024 1067 252 1026 1699 1742 477 1701 
1027 1070 253 1029 1702 1745 478 1704 
1030 1073 254 1032 1705 1748 479 1707 
1033 1076 255 1035 1708 1751 480 1710 
1036 1079 256 1038 1711 1754 481 1713 
1039 1082 257 1041 1714 1757 482 1716 
1042 1085 258 1044 1717 1760 483 1719 
1045 1088 259 1047 1720 1763 484 1722 
1048 1091 260 1050 1723 1766 485 1725 
1051 1094 261 1053 1726 1769 486 1728 
1054 1097 262 1056 1729 1772 487 1731 
1057 1100 44 615 1732 1775 104 675 
586 17 263 1059 646 77 488 1734 
1060 1103 264 1062 1735 1778 489 1737 
1063 1106 265 1065 1738 1781 490 1740 
1066 1109 266 1068 1741 1784 491 1743 
1069 1112 267 1071 1744 1787 492 1746 
1072 1115 268 1074 1747 1790 493 1749 
1075 1118 269 1077 1750 1793 494 1752 
1078 1121 270 1080 1753 1796 495 1755 
1081 1124 271 1083 1756 1799 496 1758 
1084 1127 272 1086 1759 1802 497 1761 
1087 1130 273 1089 1762 1805 498 1764 
1090 1133 274 1092 1765 1808 499 1767 
1093 1136 275 1095 1768 1811 500 1770 
1096 1139 276 1098 1771 1814 501 1773 
1099 1142 277 1101 1774 1817 502 1776 
1102 1145 43 614 1777 1820 103 674 
587 18 278 1104 647 78 503 1779 
1105 1148 279 1107 1780 1823 504 1782 
1108 1151 280 1110 1783 1826 505 1785 
1111 1154 281 1113 1786 1829 506 1788 
1114 1157 282 1116 1789 1832 507 1791 
1117 1160 283 1119 1792 1835 508 1794 
1120 1163 284 1122 1795 1838 509 1797 
1123 1166 285 1125 1798 1841 510 1800 
1126 1169 286 1128 1801 1844 511 1803 
1129 1172 287 1131 1804 1847 512 1806 
1132 1175 288 1134 1807 1850 513 1809 
1135 1178 289 1137 1810 1853 514 1812 
1138 1181 290 1140 1813 1856 515 1815 
1141 1184 291 1143 1816 1859 516 1818 
1144 1187 292 1146 1819 1862 517 1821 
1147 1190 42 613 1822 1865 102 673 
588 19 293 1149 648 79 518 1824 
1150 1193 294 1152 1825 1868 519 1827 
1153 1196 295 1155 1828 1871 520 1830 
1156 1199 296 1158 1831 1874 521 1833 
1159 1202 297 1161 1834 1877 522 1836 
1162 1205 298 1164 1837 1880 523 1839 
1165 1208 299 1167 1840 1883 524 1842 
1168 1211 300 1170 1843 1886 525 1845 
1171 1214 301 1173 1846 1889 526 1848 
1174 1217 302 1176 1849 1892 527 1851 
1177 1220 303 1179 1852 1895 528 1854 
1180 1223 304 1182 1855 1898 529 1857 
1183 1226 305 1185 1858 1901 530 1860 
1186 1229 306 1188 1861 1904 531 1863 
1189 1232 307 1191 1864 1907 532 1866 
1192 1235 41 612 1867 1910 101 672 
589 20 308 1194 649 80 533 1869 
1195 1238 309 1197 1870 1913 534 1872 
1198 1241 310 1200 1873 1916 535 1875 
1201 1244 311 1203 1876 1919 536 1878 
1204 1247 312 1206 1879 1922 537 1881 
1207 1250 313 1209 1882 1925 538 1884 
1210 1253 314 1212 1885 1928 539 1887 
1213 1256 315 1215 1888 1931 540 1890 
1216 1259 316 1218 1891 1934 541 1893 
1219 1262 317 1221 1894 1937 542 1896 
1222 1265 318 1224 1897 1940 543 1899 
1225 1268 319 1227 1900 1943 544 1902 
1228 1271 320 1230 1903 1946 545 1905 
1231 1274 321 1233 1906 1949 546 1908 
1234 1277 322 1236 1909 1952 547 1911 
1237 1280 40 611 1912 1955 100 671 
590 21 323 1239 650 81 548 1914 
1240 1283 324 1242 1915 1958 549 1917 
1243 1286 325 1245 1918 1961 550 1920 
1246 1289 326 1248 1921 1964 551 1923 
1249 1292 327 1251 1924 1967 552 1926 
1252 1295 328 1254 1927 1970 553 1929 
1255 1298 329 1257 1930 1973 554 1932 
1258 1301 330 1260 1933 1976 555 1935 
1261 1304 331 1263 1936 1979 556 1938 
1264 1307 332 1266 1939 1982 557 1941 
1267 1310 333 1269 1942 1985 558 1944 
1270 1313 334 1272 1945 1988 559 1947 
1273 1316 335 1275 1948 1991 560 1950 
1276 1319 336 1278 1951 1994 561 1953 
1279 1322 337 1281 1954 1997 562 1956 
1282 1325 39 610 1957 2000 99 670 
591 22 338 1284 651 82 563 1959 
1285 1328 339 1287 1960 2003 564 1962 
1288 1331 340 1290 1963 2006 565 1965 
1291 1334 341 1293 1966 2009 566 1968 
1294 1337 342 1296 1969 2012 567 1971 
1297 1340 343 1299 1972 2015 568 1974 
1300 1343 344 1302 1975 2018 569 1977 
1303 1346 345 1305 1978 2021 570 1980 
1306 1349 346 1308 1981 2024 571 1983 
1309 1352 347 1311 1984 2027 572 1986 
1312 1355 348 1314 1987 2030 573 1989 
1315 1358 349 1317 1990 2033 574 1992 
1318 1361 350 1320 1993 2036 575 1995 
1321 1364 351 1323 1996 2039 576 1998 
1324 1367 352 1326 1999 2042 577 2001 
1327 1370 38 609 2002 2045 98 669 
592 1 23 1329 652 5 83 2004 
1330 593 24 1332 2005 653 84 2007 
1333 594 25 1335 2008 654 85 2010 
1336 595 26 1338 2011 655 86 2013 
1339 596 27 1341 2014 656 87 2016 
1342 597 28 1344 2017 657 88 2019 
1345 598 29 1347 2020 658 89 2022 
1348 599 30 1350 2023 659 90 2025 
1351 600 31 1353 2026 660 91 2028 
1354 601 32 1356 2029 661 92 2031 
1357 602 33 1359 2032 662 93 2034 
1360 603 34 1362 2035 663 94 2037 
1363 604 35 1365 2038 664 95 2040 
1366 605 36 1368 2041 665 96 2043 
1369 606 37 1371 2044 666 97 2046 
1372 607 2 608 2047 667 6 668 
</DataArray>
<DataArray  type="Int32"  Name="offsets"  format="ascii"> 
8
16
24
32
40
48
56
64
72
80
88
96
104
112
120
128
136
144
152
160
168
176
184
192
200
208
216
224
232
240
248
256
264
272
280
288
296
304
312
320
328
336
344
352
360
368
376
384
392
400
408
416
424
432
440
448
456
464
472
480
488
496
504
512
520
528
536
544
552
560
568
576
584
592
600
608
616
624
632
640
648
656
664
672
680
688
696
704
712
720
728
736
744
752
760
768
776
784
792
800
808
816
824
832
840
848
856
864
872
880
888
896
904
912
920
928
936
944
952
960
968
976
984
992
1000
1008
1016
1024
1032
1040
1048
1056
1064
1072
1080
1088
1096
1104
1112
1120
1128
1136
1144
1152
1160
1168
1176
1184
1192
1200
1208
1216
1224
1232
1240
1248
1256
1264
1272
1280
1288
1296
1304
1312
1320
1328
1336
1344
1352
1360
1368
1376
1384
1392
1400
1408
1416
1424
1432
1440
1448
1456
1464
1472
1480
1488
1496
1504
1512
1520
1528
1536
1544
1552
1560
1568
1576
1584
1592
1600
1608
1616
1624
1632
1640
1648
1656
1664
1672
1680
1688
1696
1704
1712
1720
1728
1736
1744
1752
1760
1768
1776
1784
1792
1800
1808
1816
1824
1832
1840
1848
1856
1864
1872
1880
1888
1896
1904
1912
1920
1928
1936
1944
1952
1960
1968
1976
1984
1992
2000
2008
2016
2024
2032
2040
2048
</DataArray>
<DataArray  type="UInt8"  Name="types"  format="ascii"> 
12
12
12
12
12
12
12
12
12
12
12
12
12
12
12
12
12
12
12
12
12
12
12
12
12
12
12
12
12
12
12
12
12
12
12
12
12
12
12
12
12
12
12
12
12
12
12
12
12
12
12
12
12
12
12
12
12
12
12
12
12
12
12
12
12
12
12
12
12
12
12
12
12
12
12
12
12
12
12
12
12
12
12
12
12
12
12
12
12
12
12
12
12
12
12
12
12
12
12
12
12
12
12
12
12
12
12
12
12
12
12
12
12
12
12
12
12
12
12
12
12
12
12
12
12
12
12
12
12
12
12
12
12
12
12
12
12
12
12
12
12
12
12
12
12
12
12
12
12
12
12
12
12
12
12
12
12
12
12
12
12
12
12
12
12
12
12
12
12
12
12
12
12
12
12
12
12
12
12
12
12
12
12
12
12
12
12
12
12
12
12
12
12
12
12
12
12
12
12
12
12
12
12
12
12
12
12
12
12
12
12
12
12
12
12
12
12
12
12
12
12
12
12
12
12
12
12
12
12
12
12
12
12
12
12
12
12
12
12
12
12
12
12
12
12
12
12
12
12
12
12
12
12
12
12
12
</DataArray> 
 </Cells> 
<PointData  Vectors="sigma"> 
 <DataArray  type="Float64"  Name="U" NumberOfComponents="3" format="ascii"> 
  0.00000000     0.00000000   0.00000
 -1.56894540     7.81250000   0.00000
 -5.90492620     7.81250000   0.00000
  0.00000000     0.00000000   0.00000
  0.00000000     0.00000000   0.00000
 -1.56894540     7.81250000   0.00000
 -5.90492620     7.81250000   0.00000
  0.00000000     0.00000000   0.00000
  0.03650716     0.07620570   0.00000
  0.11044783     0.18329205   0.00000
  0.20861201     0.30716830   0.00000
  0.32592670     0.46095360   0.00000
  0.45085405     0.66063792   0.00000
  0.56815321     0.92031123   0.00000
  0.66126835     1.25031121   0.00000
  0.71441354     1.65692158   0.00000
  0.71392980     2.14308405   0.00000
  0.64878364     2.70959513   0.00000
  0.51027967     3.35623576   0.00000
  0.29130136     4.08247459   0.00000
 -0.01465710     4.88770361   0.00000
 -0.41481136     5.77195729   0.00000
 -0.92151091     6.73682563   0.00000
 -1.84161036     7.81250000   0.00000
 -2.10881581     7.81250000   0.00000
 -2.37020559     7.81250000   0.00000
 -2.62821950     7.81250000   0.00000
 -2.88482088     7.81250000   0.00000
 -3.14161560     7.81250000   0.00000
 -3.39992242     7.81250000   0.00000
 -3.66082472     7.81250000   0.00000
 -3.92520390     7.81250000   0.00000
 -4.19375918     7.81250000   0.00000
 -4.46701079     7.81250000   0.00000
 -4.74528469     7.81250000   0.00000
 -5.02867277     7.81250000   0.00000
 -5.31695746     7.81250000   0.00000
 -5.60946537     7.81250000   0.00000
 -5.59799469     6.92905429   0.00000
 -5.26385399     6.05470652   0.00000
 -4.89643582     5.21331542   0.00000
 -4.50286867     4.42586339   0.00000
 -4.09455289     3.70506494   0.00000
 -3.68222464     3.05633334   0.00000
 -3.27408863     2.48023194   0.00000
 -2.87564300     1.97456209   0.00000
 -2.49006659     1.53569821   0.00000
 -2.11859762     1.15935809   0.00000
 -1.76067528     0.84106859   0.00000
 -1.41372001     0.57651740   0.00000
 -1.07226898     0.36183183   0.00000
 -0.72394611     0.19357559   0.00000
 -0.34252150     0.07270093   0.00000
  0.00000000     0.00000000   0.00000
  0.00000000     0.00000000   0.00000
  0.00000000     0.00000000   0.00000
  0.00000000     0.00000000   0.00000
  0.00000000     0.00000000   0.00000
  0.00000000     0.00000000   0.00000
  0.00000000     0.00000000   0.00000
  0.00000000     0.00000000   0.00000
  0.00000000     0.00000000   0.00000
  0.00000000     0.00000000   0.00000
  0.00000000     0.00000000   0.00000
  0.00000000     0.00000000   0.00000
  0.00000000     0.00000000   0.00000
  0.00000000     0.00000000   0.00000
  0.00000000     0.00000000   0.00000
  0.03650716     0.07620570   0.00000
  0.11044783     0.18329205   0.00000
  0.20861201     0.30716830   0.00000
  0.32592670     0.46095360   0.00000
  0.45085405     0.66063792   0.00000
  0.56815321     0.92031123   0.00000
  0.66126835     1.25031121   0.00000
  0.71441354     1.65692158   0.00000
  0.71392980     2.14308405   0.00000
  0.64878364     2.70959513   0.00000
  0.51027967     3.35623576   0.00000
  0.29130136     4.08247459   0.00000
 -0.01465710     4.88770361   0.00000
 -0.41481136     5.77195729   0.00000
 -0.92151091     6.73682563   0.00000
 -1.84161036     7.81250000   0.00000
 -2.10881581     7.81250000   0.00000
 -2.37020559     7.81250000   0.00000
 -2.62821950     7.81250000   0.00000
 -2.88482088     7.81250000   0.00000
 -3.14161560     7.81250000   0.00000
 -3.39992242     7.81250000   0.00000
 -3.66082472     7.81250000   0.00000
 -3.92520390     7.81250000   0.00000
 -4.19375918     7.81250000   0.00000
 -4.46701079     7.81250000   0.00000
 -4.74528469     7.81250000   0.00000
 -5.02867277     7.81250000   0.00000
 -5.31695746     7.81250000   0.00000
 -5.60946537     7.81250000   0.00000
 -5.59799469     6.92905429   0.00000
 -5.26385399     6.05470652   0.00000
 -4.89643582     5.21331542   0.00000
 -4.50286867     4.42586339   0.00000
 -4.09455289     3.70506494   0.00000
 -3.68222464     3.05633334   0.00000
 -3.27408863     2.48023194   0.00000
 -2.87564300     1.97456209   0.00000
 -2.49006659     1.53569821   0.00000
 -2.11859762     1.15935809   0.00000
 -1.76067528     0.84106859   0.00000
 -1.41372001     0.57651740   0.00000
 -1.07226898     0.36183183   0.00000
 -0.72394611     0.19357559   0.00000
 -0.34252150     0.07270093   0.00000
  0.00000000     0.00000000   0.00000
  0.00000000     0.00000000   0.00000
  0.00000000     0.00000000   0.00000
  0.00000000     0.00000000   0.00000
  0.00000000     0.00000000   0.00000
  0.00000000     0.00000000   0.00000
  0.00000000     0.00000000   0.00000
  0.00000000     0.00000000   0.00000
  0.00000000     0.00000000   0.00000
  0.00000000     0.00000000   0.00000
  0.00000000     0.00000000   0.00000
  0.00000000     0.00000000   0.00000
  0.00000000     0.00000000   0.00000
  0.00000000     0.00000000   0.00000
  0.00000000     0.00000000   0.00000
  0.05195264     0.09204234   0.00000
  0.06230086     0.10021207   0.00000
  0.06911071     0.10295700   0.00000
  0.07229808     0.10162722   0.00000
  0.07167051     0.09707330   0.00000
  0.06715029     0.09004209   0.00000
  0.05872211     0.08119871   0.00000
  0.04638225     0.07114108   0.00000
  0.03009040     0.06042318   0.00000
  0.00971082     0.04958997   0.00000
 -0.01507548     0.03923929   0.00000
 -0.04496025     0.03014135   0.00000
 -0.08145419     0.02353796   0.00000
 -0.12820218     0.02202552   0.00000
 -0.19524116     0.03308721   0.00000
  0.13558152     0.20101056   0.00000
  0.15395184     0.21101384   0.00000
  0.16424135     0.21434023   0.00000
  0.16607150     0.21206913   0.00000
  0.15931593     0.20532203   0.00000
  0.14399661     0.19518754   0.00000
  0.12017125     0.18270479   0.00000
  0.08784373     0.16888684   0.00000
  0.04685363     0.15476490   0.00000
 -0.00324799     0.14147586   0.00000
 -0.06344201     0.13040100   0.00000
 -0.13568825     0.12341319   0.00000
 -0.22391292     0.12328196   0.00000
 -0.33632826     0.13417435   0.00000
 -0.49314396     0.15979649   0.00000
  0.23987434     0.32802675   0.00000
  0.25901918     0.34032556   0.00000
  0.26531173     0.34539212   0.00000
  0.25855420     0.34451263   0.00000
  0.23882928     0.33898318   0.00000
  0.20629335     0.33008496   0.00000
  0.16104456     0.31908805   0.00000
  0.10299562     0.30728158   0.00000
  0.03175216     0.29603210   0.00000
 -0.05358146     0.28685949   0.00000
 -0.15470847     0.28152268   0.00000
 -0.27461669     0.28207074   0.00000
 -0.41840291     0.29067012   0.00000
 -0.59446630     0.30860558   0.00000
 -0.81311013     0.33392852   0.00000
  0.35401835     0.48531794   0.00000
  0.36481201     0.50123903   0.00000
  0.35866672     0.50993948   0.00000
  0.33572607     0.51293868   0.00000
  0.29630251     0.51164885   0.00000
  0.24064147     0.50744320   0.00000
  0.16881142     0.50168047   0.00000
  0.08059780     0.49573133   0.00000
 -0.02462042     0.49100228   0.00000
 -0.14802246     0.48893942   0.00000
 -0.29153877     0.49097568   0.00000
 -0.45804946     0.49834903   0.00000
 -0.65141213     0.51167604   0.00000
 -0.87553665     0.53031310   0.00000
 -1.13112263     0.55235474   0.00000
  0.46557784     0.68853415   0.00000
  0.45905643     0.70886118   0.00000
  0.43270489     0.72246242   0.00000
  0.38689671     0.73092571   0.00000
  0.32208617     0.73565523   0.00000
  0.23854606     0.73797663   0.00000
  0.13629960     0.73916370   0.00000
  0.01507564     0.74044121   0.00000
 -0.12578122     0.74296747   0.00000
 -0.28734054     0.74778104   0.00000
 -0.47110257     0.75569600   0.00000
 -0.67882780     0.76713590   0.00000
 -0.91211443     0.78196602   0.00000
 -1.17136619     0.79952990   0.00000
 -1.45530559     0.81915838   0.00000
  0.56019900     0.95115534   0.00000
  0.52870845     0.97580195   0.00000
  0.47585158     0.99451522   0.00000
  0.40203483     1.00878219   0.00000
  0.30776474     1.01985521   0.00000
  0.19330596     1.02887759   0.00000
  0.05870846     1.03689769   0.00000
 -0.09624856     1.04485717   0.00000
 -0.27199515     1.05355646   0.00000
 -0.46918975     1.06360887   0.00000
 -0.68853885     1.07538066   0.00000
 -0.93064908     1.08895865   0.00000
 -1.19560670     1.10419088   0.00000
 -1.48284346     1.12086989   0.00000
 -1.79128526     1.13901402   0.00000
  0.62355388     1.28308795   0.00000
  0.56157152     1.31120138   0.00000
  0.47791422     1.33428725   0.00000
  0.37290261     1.35360129   0.00000
  0.24702016     1.37015902   0.00000
  0.10056334     1.38484905   0.00000
 -0.06636284     1.39845146   0.00000
 -0.25377388     1.41161778   0.00000
 -0.46179520     1.42485485   0.00000
 -0.69057201     1.43850609   0.00000
 -0.94021789     1.45275283   0.00000
 -1.21063090     1.46764345   0.00000
 -1.50147667     1.48317591   0.00000
 -1.81221474     1.49940893   0.00000
 -2.14226417     1.51662167   0.00000
  0.64266467     1.69042765   0.00000
  0.54711642     1.72071299   0.00000
  0.43057812     1.74684227   0.00000
  0.29321711     1.76980255   0.00000
  0.13549106     1.79035821   0.00000
 -0.04227194     1.80915434   0.00000
 -0.23983321     1.82673757   0.00000
 -0.45701311     1.84354733   0.00000
 -0.69364997     1.85990933   0.00000
 -0.94956199     1.87603806   0.00000
 -1.22451914     1.89205355   0.00000
 -1.51824754     1.90801905   0.00000
 -1.83046836     1.92399435   0.00000
 -2.16095182     1.94010743   0.00000
 -2.50965782     1.95667890   0.00000
  0.60663498     2.17616654   0.00000
  0.47680723     2.20723640   0.00000
  0.32734830     2.23493356   0.00000
  0.15830685     2.25999833   0.00000
 -0.02988295     2.28299195   0.00000
 -0.23684470     2.30437344   0.00000
 -0.46224601     2.32453088   0.00000
 -0.70572016     2.34376997   0.00000
 -0.96693015     2.36231489   0.00000
 -1.24552713     2.38030336   0.00000
 -1.54121975     2.39780099   0.00000
 -1.85376275     2.41482519   0.00000
 -2.18311758     2.43139242   0.00000
 -2.52945198     2.44757457   0.00000
 -2.89320824     2.46361193   0.00000
  0.50672182     2.74130051   0.00000
  0.34382394     2.77195301   0.00000
  0.16309521     2.79992189   0.00000
 -0.03554658     2.82577229   0.00000
 -0.25163868     2.84992463   0.00000
 -0.48479388     2.87272536   0.00000
 -0.73454299     2.89446802   0.00000
 -1.00043966     2.91538197   0.00000
 -1.28197251     2.93560256   0.00000
 -1.57876414     2.95517504   0.00000
 -1.89051415     2.97405874   0.00000
 -2.21721549     2.99216575   0.00000
 -2.55906156     3.00939327   0.00000
 -2.91664473     3.02569149   0.00000
 -3.29093410     3.04115839   0.00000
  0.33587382     3.38585686   0.00000
  0.14254309     3.41518276   0.00000
 -0.06665149     3.44246206   0.00000
 -0.29182047     3.46813725   0.00000
 -0.53254522     3.49256677   0.00000
 -0.78830607     3.51604972   0.00000
 -1.05851582     3.53883297   0.00000
 -1.34249541     3.56105185   0.00000
 -1.63965840     3.58271596   0.00000
 -1.94958414     3.60371737   0.00000
 -2.27218365     3.62386864   0.00000
 -2.60763520     3.64293570   0.00000
 -2.95650170     3.66068581   0.00000
 -3.31971035     3.67693305   0.00000
 -3.69875396     3.69161851   0.00000
  0.08804392     4.10949381   0.00000
 -0.13222845     4.13686186   0.00000
 -0.36634233     4.16278906   0.00000
 -0.61455533     4.18765671   0.00000
 -0.87626657     4.21186659   0.00000
 -1.15059239     4.23571000   0.00000
 -1.43656008     4.25931474   0.00000
 -1.73332075     4.28262472   0.00000
 -2.04029451     4.30543571   0.00000
 -2.35725083     4.32745282   0.00000
 -2.68433518     4.34834399   0.00000
 -3.02207176     4.36777933   0.00000
 -3.37135742     4.38545308   0.00000
 -3.73346838     4.40110235   0.00000
 -4.11015579     4.41453589   0.00000
 -0.24274389     4.91177103   0.00000
 -0.48607156     4.93670762   0.00000
 -0.74182420     4.96076056   0.00000
 -1.00958961     4.98454920   0.00000
 -1.28785180     5.00849232   0.00000
 -1.57509998     5.03261297   0.00000
 -1.87019619     5.05668151   0.00000
 -2.17240806     5.08032757   0.00000
 -2.48154538     5.10314801   0.00000
 -2.79781671     5.12476183   0.00000
 -3.12181115     5.14484019   0.00000
 -3.45434172     5.16310191   0.00000
 -3.79655595     5.17930412   0.00000
 -4.14986290     5.19321165   0.00000
 -4.51593821     5.20456993   0.00000
 -0.66385865     5.79244363   0.00000
 -0.92845756     5.81434232   0.00000
 -1.20271679     5.83684887   0.00000
 -1.48421582     5.86000252   0.00000
 -1.77078623     5.88340125   0.00000
 -2.06129730     5.90649593   0.00000
 -2.35529379     5.92877849   0.00000
 -2.65297765     5.94985536   0.00000
 -2.95483445     5.96944522   0.00000
 -3.26169240     5.98737609   0.00000
 -3.57442732     6.00354394   0.00000
 -3.89409903     6.01788717   0.00000
 -4.22173971     6.03033475   0.00000
 -4.55841894     6.04076448   0.00000
 -4.90538773     6.04894525   0.00000
 -1.19395807     6.75477871   0.00000
 -1.47470758     6.77586188   0.00000
 -1.75544888     6.79604070   0.00000
 -2.03552299     6.81479748   0.00000
 -2.31493801     6.83202842   0.00000
 -2.59434142     6.84764688   0.00000
 -2.87475264     6.86165884   0.00000
 -3.15721953     6.87412932   0.00000
 -3.44281260     6.88516166   0.00000
 -3.73253895     6.89487279   0.00000
 -4.02727981     6.90337459   0.00000
 -4.32786918     6.91075778   0.00000
 -4.63490814     6.91706936   0.00000
 -4.94883274     6.92228764   0.00000
 -5.26980822     6.92629638   0.00000
  0.05195264     0.09204234   0.00000
  0.06230086     0.10021207   0.00000
  0.06911071     0.10295700   0.00000
  0.07229808     0.10162722   0.00000
  0.07167051     0.09707330   0.00000
  0.06715029     0.09004209   0.00000
  0.05872211     0.08119871   0.00000
  0.04638225     0.07114108   0.00000
  0.03009040     0.06042318   0.00000
  0.00971082     0.04958997   0.00000
 -0.01507548     0.03923929   0.00000
 -0.04496025     0.03014135   0.00000
 -0.08145419     0.02353796   0.00000
 -0.12820218     0.02202552   0.00000
 -0.19524116     0.03308721   0.00000
  0.13558152     0.20101056   0.00000
  0.15395184     0.21101384   0.00000
  0.16424135     0.21434023   0.00000
  0.16607150     0.21206913   0.00000
  0.15931593     0.20532203   0.00000
  0.14399661     0.19518754   0.00000
  0.12017125     0.18270479   0.00000
  0.08784373     0.16888684   0.00000
  0.04685363     0.15476490   0.00000
 -0.00324799     0.14147586   0.00000
 -0.06344201     0.13040100   0.00000
 -0.13568825     0.12341319   0.00000
 -0.22391292     0.12328196   0.00000
 -0.33632826     0.13417435   0.00000
 -0.49314396     0.15979649   0.00000
  0.23987434     0.32802675   0.00000
  0.25901918     0.34032556   0.00000
  0.26531173     0.34539212   0.00000
  0.25855420     0.34451263   0.00000
  0.23882928     0.33898318   0.00000
  0.20629335     0.33008496   0.00000
  0.16104456     0.31908805   0.00000
  0.10299562     0.30728158   0.00000
  0.03175216     0.29603210   0.00000
 -0.05358146     0.28685949   0.00000
 -0.15470847     0.28152268   0.00000
 -0.27461669     0.28207074   0.00000
 -0.41840291     0.29067012   0.00000
 -0.59446630     0.30860558   0.00000
 -0.81311013     0.33392852   0.00000
  0.35401835     0.48531794   0.00000
  0.36481201     0.50123903   0.00000
  0.35866672     0.50993948   0.00000
  0.33572607     0.51293868   0.00000
  0.29630251     0.51164885   0.00000
  0.24064147     0.50744320   0.00000
  0.16881142     0.50168047   0.00000
  0.08059780     0.49573133   0.00000
 -0.02462042     0.49100228   0.00000
 -0.14802246     0.48893942   0.00000
 -0.29153877     0.49097568   0.00000
 -0.45804946     0.49834903   0.00000
 -0.65141213     0.51167604   0.00000
 -0.87553665     0.53031310   0.00000
 -1.13112263     0.55235474   0.00000
  0.46557784     0.68853415   0.00000
  0.45905643     0.70886118   0.00000
  0.43270489     0.72246242   0.00000
  0.38689671     0.73092571   0.00000
  0.32208617     0.73565523   0.00000
  0.23854606     0.73797663   0.00000
  0.13629960     0.73916370   0.00000
  0.01507564     0.74044121   0.00000
 -0.12578122     0.74296747   0.00000
 -0.28734054     0.74778104   0.00000
 -0.47110257     0.75569600   0.00000
 -0.67882780     0.76713590   0.00000
 -0.91211443     0.78196602   0.00000
 -1.17136619     0.79952990   0.00000
 -1.45530559     0.81915838   0.00000
  0.56019900     0.95115534   0.00000
  0.52870845     0.97580195   0.00000
  0.47585158     0.99451522   0.00000
  0.40203483     1.00878219   0.00000
  0.30776474     1.01985521   0.00000
  0.19330596     1.02887759   0.00000
  0.05870846     1.03689769   0.00000
 -0.09624856     1.04485717   0.00000
 -0.27199515     1.05355646   0.00000
 -0.46918975     1.06360887   0.00000
 -0.68853885     1.07538066   0.00000
 -0.93064908     1.08895865   0.00000
 -1.19560670     1.10419088   0.00000
 -1.48284346     1.12086989   0.00000
 -1.79128526     1.13901402   0.00000
  0.62355388     1.28308795   0.00000
  0.56157152     1.31120138   0.00000
  0.47791422     1.33428725   0.00000
  0.37290261     1.35360129   0.00000
  0.24702016     1.37015902   0.00000
  0.10056334     1.38484905   0.00000
 -0.06636284     1.39845146   0.00000
 -0.25377388     1.41161778   0.00000
 -0.46179520     1.42485485   0.00000
 -0.69057201     1.43850609   0.00000
 -0.94021789     1.45275283   0.00000
 -1.21063090     1.46764345   0.00000
 -1.50147667     1.48317591   0.00000
 -1.81221474     1.49940893   0.00000
 -2.14226417     1.51662167   0.00000
  0.64266467     1.69042765   0.00000
  0.54711642     1.72071299   0.00000
  0.43057812     1.74684227   0.00000
  0.29321711     1.76980255   0.00000
  0.13549106     1.79035821   0.00000
 -0.04227194     1.80915434   0.00000
 -0.23983321     1.82673757   0.00000
 -0.45701311     1.84354733   0.00000
 -0.69364997     1.85990933   0.00000
 -0.94956199     1.87603806   0.00000
 -1.22451914     1.89205355   0.00000
 -1.51824754     1.90801905   0.00000
 -1.83046836     1.92399435   0.00000
 -2.16095182     1.94010743   0.00000
 -2.50965782     1.95667890   0.00000
  0.60663498     2.17616654   0.00000
  0.47680723     2.20723640   0.00000
  0.32734830     2.23493356   0.00000
  0.15830685     2.25999833   0.00000
 -0.02988295     2.28299195   0.00000
 -0.23684470     2.30437344   0.00000
 -0.46224601     2.32453088   0.00000
 -0.70572016     2.34376997   0.00000
 -0.96693015     2.36231489   0.00000
 -1.24552713     2.38030336   0.00000
 -1.54121975     2.39780099   0.00000
 -1.85376275     2.41482519   0.00000
 -2.18311758     2.43139242   0.00000
 -2.52945198     2.44757457   0.00000
 -2.89320824     2.46361193   0.00000
  0.50672182     2.74130051   0.00000
  0.34382394     2.77195301   0.00000
  0.16309521     2.79992189   0.00000
 -0.03554658     2.82577229   0.00000
 -0.25163868     2.84992463   0.00000
 -0.48479388     2.87272536   0.00000
 -0.73454299     2.89446802   0.00000
 -1.00043966     2.91538197   0.00000
 -1.28197251     2.93560256   0.00000
 -1.57876414     2.95517504   0.00000
 -1.89051415     2.97405874   0.00000
 -2.21721549     2.99216575   0.00000
 -2.55906156     3.00939327   0.00000
 -2.91664473     3.02569149   0.00000
 -3.29093410     3.04115839   0.00000
  0.33587382     3.38585686   0.00000
  0.14254309     3.41518276   0.00000
 -0.06665149     3.44246206   0.00000
 -0.29182047     3.46813725   0.00000
 -0.53254522     3.49256677   0.00000
 -0.78830607     3.51604972   0.00000
 -1.05851582     3.53883297   0.00000
 -1.34249541     3.56105185   0.00000
 -1.63965840     3.58271596   0.00000
 -1.94958414     3.60371737   0.00000
 -2.27218365     3.62386864   0.00000
 -2.60763520     3.64293570   0.00000
 -2.95650170     3.66068581   0.00000
 -3.31971035     3.67693305   0.00000
 -3.69875396     3.69161851   0.00000
  0.08804392     4.10949381   0.00000
 -0.13222845     4.13686186   0.00000
 -0.36634233     4.16278906   0.00000
 -0.61455533     4.18765671   0.00000
 -0.87626657     4.21186659   0.00000
 -1.15059239     4.23571000   0.00000
 -1.43656008     4.25931474   0.00000
 -1.73332075     4.28262472   0.00000
 -2.04029451     4.30543571   0.00000
 -2.35725083     4.32745282   0.00000
 -2.68433518     4.34834399   0.00000
 -3.02207176     4.36777933   0.00000
 -3.37135742     4.38545308   0.00000
 -3.73346838     4.40110235   0.00000
 -4.11015579     4.41453589   0.00000
 -0.24274389     4.91177103   0.00000
 -0.48607156     4.93670762   0.00000
 -0.74182420     4.96076056   0.00000
 -1.00958961     4.98454920   0.00000
 -1.28785180     5.00849232   0.00000
 -1.57509998     5.03261297   0.00000
 -1.87019619     5.05668151   0.00000
 -2.17240806     5.08032757   0.00000
 -2.48154538     5.10314801   0.00000
 -2.79781671     5.12476183   0.00000
 -3.12181115     5.14484019   0.00000
 -3.45434172     5.16310191   0.00000
 -3.79655595     5.17930412   0.00000
 -4.14986290     5.19321165   0.00000
 -4.51593821     5.20456993   0.00000
 -0.66385865     5.79244363   0.00000
 -0.92845756     5.81434232   0.00000
 -1.20271679     5.83684887   0.00000
 -1.48421582     5.86000252   0.00000
 -1.77078623     5.88340125   0.00000
 -2.06129730     5.90649593   0.00000
 -2.35529379     5.92877849   0.00000
 -2.65297765     5.94985536   0.00000
 -2.95483445     5.96944522   0.00000
 -3.26169240     5.98737609   0.00000
 -3.57442732     6.00354394   0.00000
 -3.89409903     6.01788717   0.00000
 -4.22173971     6.03033475   0.00000
 -4.55841894     6.04076448   0.00000
 -4.90538773     6.04894525   0.00000
 -1.19395807     6.75477871   0.00000
 -1.47470758     6.77586188   0.00000
 -1.75544888     6.79604070   0.00000
 -2.03552299     6.81479748   0.00000
 -2.31493801     6.83202842   0.00000
 -2.59434142     6.84764688   0.00000
 -2.87475264     6.86165884   0.00000
 -3.15721953     6.87412932   0.00000
 -3.44281260     6.88516166   0.00000
 -3.73253895     6.89487279   0.00000
 -4.02727981     6.90337459   0.00000
 -4.32786918     6.91075778   0.00000
 -4.63490814     6.91706936   0.00000
 -4.94883274     6.92228764   0.00000
 -5.26980822     6.92629638   0.00000
  0.04381761     0.08305993   0.00000
  0.11977782     0.19122721   0.00000
  0.22063791     0.31637621   0.00000
  0.34100254     0.47138239   0.00000
  0.46890812     0.67219804   0.00000
  0.58873432     0.93277434   0.00000
  0.68370275     1.26335729   0.00000
  0.73795834     1.67019263   0.00000
  0.73790269     2.15623474   0.00000
  0.67263316     2.72232148   0.00000
  0.53359561     3.36828039   0.00000
  0.31378256     4.09361288   0.00000
  0.00682686     4.89768018   0.00000
 -0.39487585     5.78076429   0.00000
 -0.89850714     6.74090714   0.00000
 -1.84161036     7.81250000   0.00000
 -2.10881581     7.81250000   0.00000
 -2.37020559     7.81250000   0.00000
 -2.62821950     7.81250000   0.00000
 -2.88482088     7.81250000   0.00000
 -3.14161560     7.81250000   0.00000
 -3.39992242     7.81250000   0.00000
 -3.66082472     7.81250000   0.00000
 -3.92520390     7.81250000   0.00000
 -4.19375918     7.81250000   0.00000
 -4.46701079     7.81250000   0.00000
 -4.74528469     7.81250000   0.00000
 -5.02867277     7.81250000   0.00000
 -5.31695746     7.81250000   0.00000
 -5.60946537     7.81250000   0.00000
 -5.59978894     6.92820014   0.00000
 -5.26958090     6.05303164   0.00000
 -4.90706069     5.21071833   0.00000
 -4.51816450     4.42232863   0.00000
 -4.11376661     3.70066243   0.00000
 -3.70451657     3.05117559   0.00000
 -3.29873235     2.47443791   0.00000
 -2.90207983     1.96823655   0.00000
 -2.51791169     1.52892097   0.00000
 -2.14764347     1.15217768   0.00000
 -1.79092612     0.83349452   0.00000
 -1.44548580     0.56850590   0.00000
 -1.10637894     0.35329206   0.00000
 -0.76335549     0.18442790   0.00000
 -0.39041800     0.06538580   0.00000
 -0.02528327    -0.00798224   0.00000
 -0.01688406    -0.00377386   0.00000
 -0.01061841    -0.00211054   0.00000
 -0.00558511    -0.00084737   0.00000
 -0.00144905     0.00029194   0.00000
  0.00194457     0.00136576   0.00000
  0.00467640     0.00238101   0.00000
  0.00678868     0.00332726   0.00000
  0.00830483     0.00418516   0.00000
  0.00923967     0.00492861   0.00000
  0.00960772     0.00552443   0.00000
  0.00943062     0.00593112   0.00000
  0.00874539     0.00609699   0.00000
  0.00761417     0.00595245   0.00000
  0.00596162     0.00523158   0.00000
  0.04381761     0.08305993   0.00000
  0.11977782     0.19122721   0.00000
  0.22063791     0.31637621   0.00000
  0.34100254     0.47138239   0.00000
  0.46890812     0.67219804   0.00000
  0.58873432     0.93277434   0.00000
  0.68370275     1.26335729   0.00000
  0.73795834     1.67019263   0.00000
  0.73790269     2.15623474   0.00000
  0.67263316     2.72232148   0.00000
  0.53359561     3.36828039   0.00000
  0.31378256     4.09361288   0.00000
  0.00682686     4.89768018   0.00000
 -0.39487585     5.78076429   0.00000
 -0.89850714     6.74090714   0.00000
 -1.84161036     7.81250000   0.00000
 -2.10881581     7.81250000   0.00000
 -2.37020559     7.81250000   0.00000
 -2.62821950     7.81250000   0.00000
 -2.88482088     7.81250000   0.00000
 -3.14161560     7.81250000   0.00000
 -3.39992242     7.81250000   0.00000
 -3.66082472     7.81250000   0.00000
 -3.92520390     7.81250000   0.00000
 -4.19375918     7.81250000   0.00000
 -4.46701079     7.81250000   0.00000
 -4.74528469     7.81250000   0.00000
 -5.02867277     7.81250000   0.00000
 -5.31695746     7.81250000   0.00000
 -5.60946537     7.81250000   0.00000
 -5.59978894     6.92820014   0.00000
 -5.26958090     6.05303164   0.00000
 -4.90706069     5.21071833   0.00000
 -4.51816450     4.42232863   0.00000
 -4.11376661     3.70066243   0.00000
 -3.70451657     3.05117559   0.00000
 -3.29873235     2.47443791   0.00000
 -2.90207983     1.96823655   0.00000
 -2.51791169     1.52892097   0.00000
 -2.14764347     1.15217768   0.00000
 -1.79092612     0.83349452   0.00000
 -1.44548580     0.56850590   0.00000
 -1.10637894     0.35329206   0.00000
 -0.76335549     0.18442790   0.00000
 -0.39041800     0.06538580   0.00000
 -0.02528327    -0.00798224   0.00000
 -0.01688406    -0.00377386   0.00000
 -0.01061841    -0.00211054   0.00000
 -0.00558511    -0.00084737   0.00000
 -0.00144905     0.00029194   0.00000
  0.00194457     0.00136576   0.00000
  0.00467640     0.00238101   0.00000
  0.00678868     0.00332726   0.00000
  0.00830483     0.00418516   0.00000
  0.00923967     0.00492861   0.00000
  0.00960772     0.00552443   0.00000
  0.00943062     0.00593112   0.00000
  0.00874539     0.00609699   0.00000
  0.00761417     0.00595245   0.00000
  0.00596162     0.00523158   0.00000
  0.05074735     0.08939809   0.00000
  0.06123499     0.09806667   0.00000
  0.06158588     0.09714047   0.00000
  0.06083584     0.09696731   0.00000
  0.07326939     0.10623247   0.00000
  0.07382688     0.10504895   0.00000
  0.06737259     0.09953157   0.00000
  0.08124790     0.10901941   0.00000
  0.08182339     0.10768857   0.00000
  0.07033849     0.09819172   0.00000
  0.08492426     0.10751688   0.00000
  0.08547250     0.10611920   0.00000
  0.06958805     0.09378216   0.00000
  0.08411728     0.10263522   0.00000
  0.08460447     0.10123856   0.00000
  0.06506418     0.08703328   0.00000
  0.07873976     0.09515987   0.00000
  0.07914787     0.09383009   0.00000
  0.05676892     0.07859589   0.00000
  0.06877880     0.08579200   0.00000
  0.06910490     0.08459178   0.00000
  0.04471557     0.06905582   0.00000
  0.05423543     0.07516144   0.00000
  0.05449163     0.07414941   0.00000
  0.02888090     0.05895728   0.00000
  0.03506616     0.06385034   0.00000
  0.03528059     0.06308105   0.00000
  0.00914954     0.04883823   0.00000
  0.01111528     0.05242989   0.00000
  0.01133545     0.05195214   0.00000
 -0.01477126     0.03929292   0.00000
 -0.01798756     0.04152291   0.00000
 -0.01768726     0.04137640   0.00000
 -0.04353096     0.03109171   0.00000
 -0.05304436     0.03192174   0.00000
 -0.05254397     0.03212339   0.00000
 -0.07857106     0.02547486   0.00000
 -0.09578072     0.02487847   0.00000
 -0.09485093     0.02538539   0.00000
 -0.12330996     0.02502612   0.00000
 -0.15035263     0.02289034   0.00000
 -0.14860463     0.02336092   0.00000
 -0.18712405     0.03768093   0.00000
 -0.22730213     0.03319591   0.00000
 -0.22213094     0.03353442   0.00000
  0.13686298     0.20068670   0.00000
  0.14741387     0.20908814   0.00000
  0.14891343     0.20854624   0.00000
  0.15544405     0.21056308   0.00000
  0.16751092     0.21911763   0.00000
  0.16924182     0.21836711   0.00000
  0.16579766     0.21384248   0.00000
  0.17878616     0.22227050   0.00000
  0.18060831     0.22140535   0.00000
  0.16758680     0.21156478   0.00000
  0.18083016     0.21966602   0.00000
  0.18264100     0.21873949   0.00000
  0.16070277     0.20484831   0.00000
  0.17351306     0.21245549   0.00000
  0.17522608     0.21151887   0.00000
  0.14517451     0.19478223   0.00000
  0.15686136     0.20176132   0.00000
  0.15840615     0.20086332   0.00000
  0.12106785     0.18240755   0.00000
  0.13094156     0.18865186   0.00000
  0.13226302     0.18783783   0.00000
  0.08839340     0.16873904   0.00000
  0.09576186     0.17416313   0.00000
  0.09682116     0.17347535   0.00000
  0.04699808     0.15480969   0.00000
  0.05115642     0.15934366   0.00000
  0.05193178     0.15881889   0.00000
 -0.00356291     0.14175860   0.00000
 -0.00334801     0.14533799   0.00000
 -0.00285819     0.14500559   0.00000
 -0.06426955     0.13097007   0.00000
 -0.06878353     0.13351801   0.00000
 -0.06855499     0.13339409   0.00000
 -0.13708937     0.12432426   0.00000
 -0.14719624     0.12570643   0.00000
 -0.14716692     0.12578575   0.00000
 -0.22598162     0.12461946   0.00000
 -0.24262927     0.12451689   0.00000
 -0.24269846     0.12477162   0.00000
 -0.33916869     0.13624330   0.00000
 -0.36332255     0.13367404   0.00000
 -0.36328974     0.13419720   0.00000
 -0.49847013     0.16396633   0.00000
 -0.52890910     0.15557998   0.00000
 -0.52974719     0.15693508   0.00000
  0.24078120     0.32747900   0.00000
  0.25283530     0.33750303   0.00000
  0.25474747     0.33666713   0.00000
  0.26003107     0.33966500   0.00000
  0.27326499     0.34948741   0.00000
  0.27522684     0.34853163   0.00000
  0.26627633     0.34471577   0.00000
  0.27995967     0.35416593   0.00000
  0.28191946     0.35312896   0.00000
  0.25940537     0.34386878   0.00000
  0.27286964     0.35279241   0.00000
  0.27474199     0.35172857   0.00000
  0.23951201     0.33841413   0.00000
  0.25209522     0.34668916   0.00000
  0.25381343     0.34564773   0.00000
  0.20675962     0.32963244   0.00000
  0.21780971     0.33715851   0.00000
  0.21932372     0.33618429   0.00000
  0.16125292     0.31879413   0.00000
  0.17012697     0.32548300   0.00000
  0.17140276     0.32461695   0.00000
  0.10291200     0.30718883   0.00000
  0.10897056     0.31295504   0.00000
  0.10998964     0.31223318   0.00000
  0.03134795     0.29618485   0.00000
  0.03394951     0.30093152   0.00000
  0.03470946     0.30038529   0.00000
 -0.05433055     0.28730548   0.00000
 -0.05583277     0.29090353   0.00000
 -0.05531790     0.29055929   0.00000
 -0.15582534     0.28231877   0.00000
 -0.16207836     0.28456727   0.00000
 -0.16177844     0.28444807   0.00000
 -0.27612827     0.28329725   0.00000
 -0.28774275     0.28384759   0.00000
 -0.28762023     0.28398414   0.00000
 -0.42033924     0.29246829   0.00000
 -0.43777604     0.29068557   0.00000
 -0.43780570     0.29115267   0.00000
 -0.59693183     0.31122919   0.00000
 -0.62011400     0.30602751   0.00000
 -0.62047654     0.30700170   0.00000
 -0.81575844     0.33711328   0.00000
 -0.84346918     0.32791262   0.00000
 -0.84399412     0.32925292   0.00000
  0.35474833     0.48488203   0.00000
  0.36796771     0.49639585   0.00000
  0.37036699     0.49533664   0.00000
  0.36567551     0.50067683   0.00000
  0.37965641     0.51162712   0.00000
  0.38188280     0.51055075   0.00000
  0.35944639     0.50939157   0.00000
  0.37332588     0.51971287   0.00000
  0.37547056     0.51859904   0.00000
  0.33636002     0.51245101   0.00000
  0.34952737     0.52203899   0.00000
  0.35151815     0.52093346   0.00000
  0.29674042     0.51125937   0.00000
  0.30860409     0.52002224   0.00000
  0.31039025     0.51896866   0.00000
  0.24084028     0.50718956   0.00000
  0.25082957     0.51504278   0.00000
  0.25237548     0.51407998   0.00000
  0.16873512     0.50160036   0.00000
  0.17629665     0.50845495   0.00000
  0.17758030     0.50761812   0.00000
  0.08021751     0.49586332   0.00000
  0.08481380     0.50161349   0.00000
  0.08582615     0.50093454   0.00000
 -0.02532648     0.49138657   0.00000
 -0.02421406     0.49589384   0.00000
 -0.02347079     0.49540245   0.00000
 -0.14906862     0.48961974   0.00000
 -0.15192842     0.49269133   0.00000
 -0.15144264     0.49241681   0.00000
 -0.29293080     0.49200277   0.00000
 -0.30019167     0.49336236   0.00000
 -0.29994843     0.49333868   0.00000
 -0.45977742     0.49978234   0.00000
 -0.47174818     0.49904310   0.00000
 -0.47173906     0.49931612   0.00000
 -0.65344133     0.51357105   0.00000
 -0.67019199     0.51025346   0.00000
 -0.67044055     0.51088537   0.00000
 -0.87767944     0.53258865   0.00000
 -0.89896992     0.52638420   0.00000
 -0.89949258     0.52738975   0.00000
 -1.13325489     0.55476684   0.00000
 -1.15840026     0.54585851   0.00000
 -1.15886296     0.54696474   0.00000
  0.46607256     0.68820719   0.00000
  0.48025287     0.70112890   0.00000
  0.48305363     0.69987409   0.00000
  0.45971998     0.70839063   0.00000
  0.47421247     0.72038096   0.00000
  0.47660971     0.71922043   0.00000
  0.43325206     0.72202695   0.00000
  0.44711318     0.73312958   0.00000
  0.44935504     0.73197368   0.00000
  0.38727245     0.73057201   0.00000
  0.39998126     0.74072179   0.00000
  0.40201139     0.73960708   0.00000
  0.32224846     0.73541741   0.00000
  0.33330600     0.74454038   0.00000
  0.33509003     0.74350452   0.00000
  0.23846161     0.73788777   0.00000
  0.24739601     0.74590399   0.00000
  0.24891126     0.74498039   0.00000
  0.13594418     0.73925626   0.00000
  0.14230809     0.74607002   0.00000
  0.14354304     0.74528887   0.00000
  0.01443331     0.74074720   0.00000
  0.01780816     0.74623746   0.00000
  0.01876024     0.74562765   0.00000
 -0.12671568     0.74351852   0.00000
 -0.12671196     0.74753063   0.00000
 -0.12603744     0.74711954   0.00000
 -0.28856041     0.74860810   0.00000
 -0.29225621     0.75094534   0.00000
 -0.29184958     0.75076118   0.00000
 -0.47258382     0.75682632   0.00000
 -0.48022742     0.75725209   0.00000
 -0.48007702     0.75732401   0.00000
 -0.68052102     0.76858395   0.00000
 -0.69224432     0.76684819   0.00000
 -0.69234108     0.76720494   0.00000
 -0.91392421     0.78370365   0.00000
 -0.92972459     0.77963132   0.00000
 -0.93004876     0.78028583   0.00000
 -1.17313003     0.80146016   0.00000
 -1.19295321     0.79507537   0.00000
 -1.19345226     0.79599682   0.00000
 -1.45716014     0.82128655   0.00000
 -1.48063138     0.81266699   0.00000
 -1.48102053     0.81365987   0.00000
  0.56049323     0.95093708   0.00000
  0.57531947     0.96500865   0.00000
  0.57842081     0.96360611   0.00000
  0.52920402     0.97542209   0.00000
  0.54392301     0.98823642   0.00000
  0.54640993     0.98703063   0.00000
  0.47620093     0.99418653   0.00000
  0.48983233     1.00586906   0.00000
  0.49210226     1.00470814   0.00000
  0.40219527     1.00855092   0.00000
  0.41432530     1.01906905   0.00000
  0.41633763     1.01797716   0.00000
  0.30770399     1.01975019   0.00000
  0.31793749     1.02904241   0.00000
  0.31967183     1.02805211   0.00000
  0.19300368     1.02892599   0.00000
  0.20097315     1.03691970   0.00000
  0.20241803     1.03605836   0.00000
  0.05815295     1.03712481   0.00000
  0.06352041     1.04372937   0.00000
  0.06467235     1.04302308   0.00000
 -0.09705759     1.04528600   0.00000
 -0.09459725     1.05039181   0.00000
 -0.09373458     1.04986405   0.00000
 -0.27304712     1.05420713   0.00000
 -0.27375665     1.05768452   0.00000
 -0.27317421     1.05735796   0.00000
 -0.47045987     1.06449646   0.00000
 -0.47455061     1.06620290   0.00000
 -0.47423424     1.06609778   0.00000
 -0.68998615     1.07651158   0.00000
 -0.69760727     1.07630741   0.00000
 -0.69753897     1.07644121   0.00000
 -0.93221254     1.09032301   0.00000
 -0.94345311     1.08810515   0.00000
 -0.94360635     1.08848717   0.00000
 -1.19720985     1.10576024   0.00000
 -1.21212175     1.10149899   0.00000
 -1.21245534     1.10212752   0.00000
 -1.48441007     1.12261453   0.00000
 -1.50307013     1.11635228   0.00000
 -1.50354273     1.11721259   0.00000
 -1.79301366     1.14099135   0.00000
 -1.81519906     1.13272118   0.00000
 -1.81553455     1.13363224   0.00000
  0.62370031     1.28295889   0.00000
  0.63882672     1.29782023   0.00000
  0.64212090     1.29631840   0.00000
  0.56194201     1.31089706   0.00000
  0.57662121     1.32424820   0.00000
  0.57912644     1.32302992   0.00000
  0.47811314     1.33404568   0.00000
  0.49135850     1.34606293   0.00000
  0.49359817     1.34492424   0.00000
  0.37290085     1.35346743   0.00000
  0.38440375     1.36414410   0.00000
  0.38635231     1.36309738   0.00000
  0.24679889     1.37015529   0.00000
  0.25626198     1.37944522   0.00000
  0.25791082     1.37851671   0.00000
  0.10011410     1.38499598   0.00000
  0.10726644     1.39284269   0.00000
  0.10861337     1.39205501   0.00000
 -0.06703798     1.39876641   0.00000
 -0.06244143     1.40510279   0.00000
 -0.06139219     1.40447573   0.00000
 -0.25466394     1.41211540   0.00000
 -0.25283759     1.41686473   0.00000
 -0.25207650     1.41641663   0.00000
 -0.46287850     1.42554543   0.00000
 -0.46400306     1.42862790   0.00000
 -0.46351500     1.42837439   0.00000
 -0.69181695     1.43939505   0.00000
 -0.69603698     1.44073552   0.00000
 -0.69580175     1.44068937   0.00000
 -0.94158269     1.45383845   0.00000
 -0.94901156     1.45337921   0.00000
 -0.94900199     1.45354815   0.00000
 -1.21206809     1.46891868   0.00000
 -1.22279987     1.46662867   0.00000
 -1.22298194     1.46701577   0.00000
 -1.50294349     1.48463352   0.00000
 -1.51707194     1.48050852   0.00000
 -1.51740526     1.48111444   0.00000
 -1.81366371     1.50104330   0.00000
 -1.83132874     1.49509476   0.00000
 -1.83177940     1.49590981   0.00000
 -2.14391583     1.51850568   0.00000
 -2.16494586     1.51066131   0.00000
 -2.16523561     1.51150651   0.00000
  0.64271755     1.69036202   0.00000
  0.65781073     1.70561654   0.00000
  0.66120151     1.70405837   0.00000
  0.54740972     1.72046315   0.00000
  0.56181669     1.73404549   0.00000
  0.56428540     1.73283661   0.00000
  0.43067839     1.74666320   0.00000
  0.44342421     1.75876939   0.00000
  0.44559109     1.75767037   0.00000
  0.29311079     1.76973711   0.00000
  0.30397373     1.78038606   0.00000
  0.30582749     1.77939609   0.00000
  0.13517116     1.79042280   0.00000
  0.14393530     1.79958685   0.00000
  0.14547678     1.79872695   0.00000
 -0.04280215     1.80936285   0.00000
 -0.03633286     1.81701043   0.00000
 -0.03509773     1.81629738   0.00000
 -0.24056325     1.82710161   0.00000
 -0.23656389     1.83319682   0.00000
 -0.23562494     1.83264593   0.00000
 -0.45792460     1.84407526   0.00000
 -0.45654803     1.84858254   0.00000
 -0.45588990     1.84820676   0.00000
 -0.69471796     1.86060656   0.00000
 -0.69609389     1.86349430   0.00000
 -0.69569647     1.86330414   0.00000
 -0.95075553     1.87690640   0.00000
 -0.95499327     1.87815114   0.00000
 -0.95483044     1.87815348   0.00000
 -1.22580465     1.89309297   0.00000
 -1.23299910     1.89267936   0.00000
 -1.23303964     1.89287792   0.00000
 -1.51959199     1.90922958   0.00000
 -1.52983471     1.90714654   0.00000
 -1.53004305     1.90754227   0.00000
 -1.83184409     1.92537814   0.00000
 -1.84523561     1.92161146   0.00000
 -1.84557298     1.92220494   0.00000
 -2.16231919     1.94166568   0.00000
 -2.17901135     1.93618944   0.00000
 -2.17944527     1.93696827   0.00000
 -2.51124911     1.95848669   0.00000
 -2.53106860     1.95117742   0.00000
 -2.53131765     1.95196308   0.00000
  0.60663841     2.17613946   0.00000
  0.62140297     2.19141254   0.00000
  0.62481426     2.18982948   0.00000
  0.47706224     2.20702080   0.00000
  0.49099956     2.22054965   0.00000
  0.49339347     2.21936339   0.00000
  0.32739514     2.23479364   0.00000
  0.33954775     2.24677210   0.00000
  0.34161407     2.24572097   0.00000
  0.15814376     2.25997602   0.00000
  0.16835195     2.27044682   0.00000
  0.17009179     2.26951789   0.00000
 -0.03025252     2.28309821   0.00000
 -0.02214681     2.29205467   0.00000
 -0.02072409     2.29126365   0.00000
 -0.23741064     2.30461794   0.00000
 -0.23154971     2.31205368   0.00000
 -0.23043339     2.31141368   0.00000
 -0.46299196     2.32492114   0.00000
 -0.45950457     2.33083190   0.00000
 -0.45867987     2.33035437   0.00000
 -0.70662534     2.34431127   0.00000
 -0.70562298     2.34869729   0.00000
 -0.70507112     2.34839232   0.00000
 -0.96796901     2.36301008   0.00000
 -0.96954643     2.36587760   0.00000
 -0.96924238     2.36575141   0.00000
 -1.24667219     2.38115380   0.00000
 -1.25090780     2.38251029   0.00000
 -1.25082158     2.38256580   0.00000
 -1.54244331     2.39880756   0.00000
 -1.54940505     2.39865555   0.00000
 -1.54950168     2.39889197   0.00000
 -1.85503863     2.41599035   0.00000
 -1.86479232     2.41431756   0.00000
 -1.86503491     2.41473258   0.00000
 -2.18442256     2.43271948   0.00000
 -2.19704473     2.42949257   0.00000
 -2.19739317     2.43008240   0.00000
 -2.53074902     2.44906570   0.00000
 -2.54636641     2.44422016   0.00000
 -2.54678664     2.44496585   0.00000
 -2.89473293     2.46533717   0.00000
 -2.91314256     2.45870804   0.00000
 -2.91335543     2.45943550   0.00000
  0.50670268     2.74129340   0.00000
  0.52088850     2.75626382   0.00000
  0.52426608     2.75467649   0.00000
  0.34406665     2.77175661   0.00000
  0.35735870     2.78498706   0.00000
  0.35965286     2.78382899   0.00000
  0.16311794     2.79980456   0.00000
  0.17457829     2.81146980   0.00000
  0.17652564     2.81047047   0.00000
 -0.03573506     2.82577634   0.00000
 -0.02623053     2.83594333   0.00000
 -0.02461497     2.83507568   0.00000
 -0.25203058     2.85005791   0.00000
 -0.24460030     2.85873634   0.00000
 -0.24330452     2.85801415   0.00000
 -0.48537423     2.87299546   0.00000
 -0.48012750     2.88020186   0.00000
 -0.47913948     2.87963683   0.00000
 -0.73529277     2.89488013   0.00000
 -0.73232580     2.90063930   0.00000
 -0.73162902     2.90024237   0.00000
 -1.00133452     2.91593816   0.00000
 -1.00072640     2.92028431   0.00000
 -1.00029677     2.92006139   0.00000
 -1.28298653     2.93630275   0.00000
 -1.28479327     2.93927115   0.00000
 -1.28460022     2.93922379   0.00000
 -1.57987062     2.95601795   0.00000
 -1.58412828     2.95763583   0.00000
 -1.58413530     2.95776020   0.00000
 -1.89168761     2.97504373   0.00000
 -1.89841725     2.97531778   0.00000
 -1.89858541     2.97560738   0.00000
 -2.21843158     2.99329303   0.00000
 -2.22765176     2.99220137   0.00000
 -2.22793994     2.99264696   0.00000
 -2.56029794     3.01066414   0.00000
 -2.57203530     3.00814888   0.00000
 -2.57240152     3.00874067   0.00000
 -2.91786529     3.02710712   0.00000
 -2.93219560     3.02306425   0.00000
 -2.93260380     3.02377527   0.00000
 -3.29236891     3.04277561   0.00000
 -3.30904584     3.03700939   0.00000
 -3.30922758     3.03767729   0.00000
  0.33584371     3.38585905   0.00000
  0.34923273     3.40026034   0.00000
  0.35254411     3.39867857   0.00000
  0.14278217     3.41499799   0.00000
  0.15525863     3.42771977   0.00000
  0.15743645     3.42659221   0.00000
 -0.06663758     3.44235853   0.00000
 -0.05599836     3.45354439   0.00000
 -0.05417681     3.45259522   0.00000
 -0.29202492     3.46816225   0.00000
 -0.28332245     3.47789359   0.00000
 -0.28184015     3.47708798   0.00000
 -0.53295730     3.49272866   0.00000
 -0.52629172     3.50103058   0.00000
 -0.52514292     3.50038560   0.00000
 -0.78890598     3.51635410   0.00000
 -0.78436714     3.52327278   0.00000
 -0.78353932     3.52280235   0.00000
 -1.05927649     3.53927962   0.00000
 -1.05693233     3.54488026   0.00000
 -1.05640076     3.54459025   0.00000
 -1.34338821     3.56163690   0.00000
 -1.34327210     3.56598910   0.00000
 -1.34300233     3.56587791   0.00000
 -1.64065431     3.58343315   0.00000
 -1.64276553     3.58659630   0.00000
 -1.64271597     3.58665523   0.00000
 -1.95065624     3.60456087   0.00000
 -1.95496626     3.60656887   0.00000
 -1.95509263     3.60678519   0.00000
 -2.27330648     3.62483339   0.00000
 -2.27977199     3.62568573   0.00000
 -2.28002895     3.62604382   0.00000
 -2.60878517     3.64401902   0.00000
 -2.61735968     3.64367306   0.00000
 -2.61770367     3.64415700   0.00000
 -2.95765683     3.66188547   0.00000
 -2.96830298     3.66025486   0.00000
 -2.96869041     3.66084826   0.00000
 -3.32083518     3.67824857   0.00000
 -3.33355952     3.67519224   0.00000
 -3.33395399     3.67586193   0.00000
 -3.70005938     3.69308528   0.00000
 -3.71457102     3.68839290   0.00000
 -3.71473038     3.68899997   0.00000
  0.08799289     4.10950436   0.00000
  0.10039007     4.12310108   0.00000
  0.10360086     4.12153712   0.00000
 -0.13198954     4.13668582   0.00000
 -0.12052886     4.14870462   0.00000
 -0.11845670     4.14759987   0.00000
 -0.36634762     4.16270235   0.00000
 -0.35669242     4.17321718   0.00000
 -0.35500526     4.17231662   0.00000
 -0.61480163     4.18772001   0.00000
 -0.60706373     4.19682745   0.00000
 -0.60576049     4.19610498   0.00000
 -0.87672946     4.21208591   0.00000
 -0.87101601     4.21985980   0.00000
 -0.87008605     4.21933647   0.00000
 -1.15123540     4.23607930   0.00000
 -1.14761140     4.24263093   0.00000
 -1.14702220     4.24231014   0.00000
 -1.43734630     4.25982160   0.00000
 -1.43581857     4.26526768   0.00000
 -1.43552362     4.26513950   0.00000
 -1.73421581     4.28325448   0.00000
 -1.73473771     4.28769173   0.00000
 -1.73468332     4.28773753   0.00000
 -2.04126862     4.30617520   0.00000
 -2.04375388     4.30966321   0.00000
 -2.04388596     4.30986066   0.00000
 -2.35827742     4.32829111   0.00000
 -2.36261828     4.33084590   0.00000
 -2.36288506     4.33117167   0.00000
 -2.68539068     4.34927343   0.00000
 -2.69147220     4.35086548   0.00000
 -2.69182654     4.35129757   0.00000
 -3.02313353     4.36879451   0.00000
 -3.03084524     4.36935077   0.00000
 -3.03124434     4.36986864   0.00000
 -3.37240428     4.38654958   0.00000
 -3.38164563     4.38595541   0.00000
 -3.38204947     4.38653950   0.00000
 -3.73446733     4.40227750   0.00000
 -3.74517103     4.40036863   0.00000
 -3.74554504     4.40098417   0.00000
 -4.11127796     4.41579384   0.00000
 -4.12311975     4.41237631   0.00000
 -4.12327014     4.41292227   0.00000
 -0.24277613     4.91176694   0.00000
 -0.23171097     4.92438601   0.00000
 -0.22844821     4.92276596   0.00000
 -0.48587180     4.93654430   0.00000
 -0.47562427     4.94761579   0.00000
 -0.47365838     4.94650191   0.00000
 -0.74193480     4.96074340   0.00000
 -0.73348023     4.97027346   0.00000
 -0.73205927     4.96948233   0.00000
 -1.00995693     4.98472638   0.00000
 -1.00349316     4.99296391   0.00000
 -1.00254577     4.99243887   0.00000
 -1.28841369     5.00883503   0.00000
 -1.28401079     5.01598748   0.00000
 -1.28346398     5.01570622   0.00000
 -1.57580445     5.03308942   0.00000
 -1.57341743     5.03933527   0.00000
 -1.57319408     5.03926434   0.00000
 -1.87100271     5.05726467   0.00000
 -1.87051098     5.06272795   0.00000
 -1.87053568     5.06283033   0.00000
 -2.17328582     5.08099672   0.00000
 -2.17452629     5.08574044   0.00000
 -2.17473179     5.08598137   0.00000
 -2.48246900     5.10388810   0.00000
 -2.48526570     5.10792054   0.00000
 -2.48559346     5.10826858   0.00000
 -2.79876443     5.12556227   0.00000
 -2.80294466     5.12884575   0.00000
 -2.80334581     5.12927426   0.00000
 -3.12276281     5.14569356   0.00000
 -3.12816598     5.14815466   0.00000
 -3.12859958     5.14864120   0.00000
 -3.45527733     5.16400292   0.00000
 -3.46175534     5.16554000   0.00000
 -3.46218760     5.16606621   0.00000
 -3.79745565     5.18024770   0.00000
 -3.80486856     5.18073647   0.00000
 -3.80526922     5.18128537   0.00000
 -4.15069810     5.19419324   0.00000
 -4.15891705     5.19348118   0.00000
 -4.15925868     5.19402418   0.00000
 -4.51681580     5.20555339   0.00000
 -4.52551573     5.20351214   0.00000
 -4.52567480     5.20399585   0.00000
 -0.66413520     5.79250920   0.00000
 -0.65418470     5.80356658   0.00000
 -0.65128750     5.80204013   0.00000
 -0.92859653     5.81442199   0.00000
 -0.91970529     5.82389287   0.00000
 -0.91839106     5.82311280   0.00000
 -1.20309716     5.83710223   0.00000
 -1.19637899     5.84540785   0.00000
 -1.19564508     5.84503724   0.00000
 -1.48474918     5.86039848   0.00000
 -1.48019363     5.86793752   0.00000
 -1.47986897     5.86781720   0.00000
 -1.77142200     5.88389125   0.00000
 -1.76882596     5.89084178   0.00000
 -1.76879864     5.89091215   0.00000
 -2.06200422     5.90705146   0.00000
 -2.06110491     5.91349235   0.00000
 -2.06128605     5.91370485   0.00000
 -2.35605053     5.92938147   0.00000
 -2.35658314     5.93531938   0.00000
 -2.35690176     5.93563435   0.00000
 -2.65376587     5.95049370   0.00000
 -2.65549191     5.95588681   0.00000
 -2.65589176     5.95627117   0.00000
 -2.95563771     5.97011046   0.00000
 -2.95835174     5.97488607   0.00000
 -2.95879012     5.97531440   0.00000
 -3.26249477     5.98806231   0.00000
 -3.26602430     5.99213127   0.00000
 -3.26646869     5.99258357   0.00000
 -3.57521278     6.00424668   0.00000
 -3.57940984     6.00751253   0.00000
 -3.57983638     6.00797461   0.00000
 -3.89485129     6.01860268   0.00000
 -3.89958181     6.02096887   0.00000
 -3.89997213     6.02142982   0.00000
 -4.22244195     6.03105911   0.00000
 -4.22756924     6.03243264   0.00000
 -4.22790889     6.03288390   0.00000
 -4.55904830     6.04149201   0.00000
 -4.56442049     6.04178534   0.00000
 -4.56469528     6.04221528   0.00000
 -4.90597005     6.04960083   0.00000
 -4.91131560     6.04880699   0.00000
 -4.91148094     6.04920612   0.00000
 -1.19495740     6.75552926   0.00000
 -1.18715930     6.76493821   0.00000
 -1.18503997     6.76377873   0.00000
 -1.47513461     6.77636349   0.00000
 -1.46927549     6.78531057   0.00000
 -1.46888626     6.78511308   0.00000
 -1.75592268     6.79649991   0.00000
 -1.75218543     6.80482554   0.00000
 -1.75229757     6.80504407   0.00000
 -2.03605117     6.81529051   0.00000
 -2.03396665     6.82320008   0.00000
 -2.03433454     6.82359037   0.00000
 -2.31551631     6.83254597   0.00000
 -2.31468053     6.84004196   0.00000
 -2.31519276     6.84052664   0.00000
 -2.59495823     6.84817902   0.00000
 -2.59505530     6.85520409   0.00000
 -2.59564067     6.85573736   0.00000
 -2.87539309     6.86219680   0.00000
 -2.87618982     6.86867225   0.00000
 -2.87679747     6.86922012   0.00000
 -3.15786867     6.87466617   0.00000
 -3.15919483     6.88050674   0.00000
 -3.15978965     6.88104546   0.00000
 -3.44345578     6.88569193   0.00000
 -3.44518725     6.89081477   0.00000
 -3.44574577     6.89132864   0.00000
 -3.73316267     6.89539298   0.00000
 -3.73520577     6.89972248   0.00000
 -3.73571334     6.90020259   0.00000
 -4.02787110     6.90388193   0.00000
 -4.03014919     6.90735463   0.00000
 -4.03059744     6.90779743   0.00000
 -4.32841637     6.91125103   0.00000
 -4.33085644     6.91381896   0.00000
 -4.33124191     6.91422505   0.00000
 -4.63539983     6.91754735   0.00000
 -4.63791836     6.91918420   0.00000
 -4.63824192     6.91955793   0.00000
 -4.94925743     6.92274360   0.00000
 -4.95174117     6.92345917   0.00000
 -4.95200707     6.92380859   0.00000
 -5.27012657     6.92665081   0.00000
 -5.27243490     6.92655212   0.00000
 -5.27265304     6.92687310   0.00000
  0.05074735     0.08939809   0.00000
  0.06123499     0.09806667   0.00000
  0.06158588     0.09714047   0.00000
  0.06083584     0.09696731   0.00000
  0.07326939     0.10623247   0.00000
  0.07382688     0.10504895   0.00000
  0.06737259     0.09953157   0.00000
  0.08124790     0.10901941   0.00000
  0.08182339     0.10768857   0.00000
  0.07033849     0.09819172   0.00000
  0.08492426     0.10751688   0.00000
  0.08547250     0.10611920   0.00000
  0.06958805     0.09378216   0.00000
  0.08411728     0.10263522   0.00000
  0.08460447     0.10123856   0.00000
  0.06506418     0.08703328   0.00000
  0.07873976     0.09515987   0.00000
  0.07914787     0.09383009   0.00000
  0.05676892     0.07859589   0.00000
  0.06877880     0.08579200   0.00000
  0.06910490     0.08459178   0.00000
  0.04471557     0.06905582   0.00000
  0.05423543     0.07516144   0.00000
  0.05449163     0.07414941   0.00000
  0.02888090     0.05895728   0.00000
  0.03506616     0.06385034   0.00000
  0.03528059     0.06308105   0.00000
  0.00914954     0.04883823   0.00000
  0.01111528     0.05242989   0.00000
  0.01133545     0.05195214   0.00000
 -0.01477126     0.03929292   0.00000
 -0.01798756     0.04152291   0.00000
 -0.01768726     0.04137640   0.00000
 -0.04353096     0.03109171   0.00000
 -0.05304436     0.03192174   0.00000
 -0.05254397     0.03212339   0.00000
 -0.07857106     0.02547486   0.00000
 -0.09578072     0.02487847   0.00000
 -0.09485093     0.02538539   0.00000
 -0.12330996     0.02502612   0.00000
 -0.15035263     0.02289034   0.00000
 -0.14860463     0.02336092   0.00000
 -0.18712405     0.03768093   0.00000
 -0.22730213     0.03319591   0.00000
 -0.22213094     0.03353442   0.00000
  0.13686298     0.20068670   0.00000
  0.14741387     0.20908814   0.00000
  0.14891343     0.20854624   0.00000
  0.15544405     0.21056308   0.00000
  0.16751092     0.21911763   0.00000
  0.16924182     0.21836711   0.00000
  0.16579766     0.21384248   0.00000
  0.17878616     0.22227050   0.00000
  0.18060831     0.22140535   0.00000
  0.16758680     0.21156478   0.00000
  0.18083016     0.21966602   0.00000
  0.18264100     0.21873949   0.00000
  0.16070277     0.20484831   0.00000
  0.17351306     0.21245549   0.00000
  0.17522608     0.21151887   0.00000
  0.14517451     0.19478223   0.00000
  0.15686136     0.20176132   0.00000
  0.15840615     0.20086332   0.00000
  0.12106785     0.18240755   0.00000
  0.13094156     0.18865186   0.00000
  0.13226302     0.18783783   0.00000
  0.08839340     0.16873904   0.00000
  0.09576186     0.17416313   0.00000
  0.09682116     0.17347535   0.00000
  0.04699808     0.15480969   0.00000
  0.05115642     0.15934366   0.00000
  0.05193178     0.15881889   0.00000
 -0.00356291     0.14175860   0.00000
 -0.00334801     0.14533799   0.00000
 -0.00285819     0.14500559   0.00000
 -0.06426955     0.13097007   0.00000
 -0.06878353     0.13351801   0.00000
 -0.06855499     0.13339409   0.00000
 -0.13708937     0.12432426   0.00000
 -0.14719624     0.12570643   0.00000
 -0.14716692     0.12578575   0.00000
 -0.22598162     0.12461946   0.00000
 -0.24262927     0.12451689   0.00000
 -0.24269846     0.12477162   0.00000
 -0.33916869     0.13624330   0.00000
 -0.36332255     0.13367404   0.00000
 -0.36328974     0.13419720   0.00000
 -0.49847013     0.16396633   0.00000
 -0.52890910     0.15557998   0.00000
 -0.52974719     0.15693508   0.00000
  0.24078120     0.32747900   0.00000
  0.25283530     0.33750303   0.00000
  0.25474747     0.33666713   0.00000
  0.26003107     0.33966500   0.00000
  0.27326499     0.34948741   0.00000
  0.27522684     0.34853163   0.00000
  0.26627633     0.34471577   0.00000
  0.27995967     0.35416593   0.00000
  0.28191946     0.35312896   0.00000
  0.25940537     0.34386878   0.00000
  0.27286964     0.35279241   0.00000
  0.27474199     0.35172857   0.00000
  0.23951201     0.33841413   0.00000
  0.25209522     0.34668916   0.00000
  0.25381343     0.34564773   0.00000
  0.20675962     0.32963244   0.00000
  0.21780971     0.33715851   0.00000
  0.21932372     0.33618429   0.00000
  0.16125292     0.31879413   0.00000
  0.17012697     0.32548300   0.00000
  0.17140276     0.32461695   0.00000
  0.10291200     0.30718883   0.00000
  0.10897056     0.31295504   0.00000
  0.10998964     0.31223318   0.00000
  0.03134795     0.29618485   0.00000
  0.03394951     0.30093152   0.00000
  0.03470946     0.30038529   0.00000
 -0.05433055     0.28730548   0.00000
 -0.05583277     0.29090353   0.00000
 -0.05531790     0.29055929   0.00000
 -0.15582534     0.28231877   0.00000
 -0.16207836     0.28456727   0.00000
 -0.16177844     0.28444807   0.00000
 -0.27612827     0.28329725   0.00000
 -0.28774275     0.28384759   0.00000
 -0.28762023     0.28398414   0.00000
 -0.42033924     0.29246829   0.00000
 -0.43777604     0.29068557   0.00000
 -0.43780570     0.29115267   0.00000
 -0.59693183     0.31122919   0.00000
 -0.62011400     0.30602751   0.00000
 -0.62047654     0.30700170   0.00000
 -0.81575844     0.33711328   0.00000
 -0.84346918     0.32791262   0.00000
 -0.84399412     0.32925292   0.00000
  0.35474833     0.48488203   0.00000
  0.36796771     0.49639585   0.00000
  0.37036699     0.49533664   0.00000
  0.36567551     0.50067683   0.00000
  0.37965641     0.51162712   0.00000
  0.38188280     0.51055075   0.00000
  0.35944639     0.50939157   0.00000
  0.37332588     0.51971287   0.00000
  0.37547056     0.51859904   0.00000
  0.33636002     0.51245101   0.00000
  0.34952737     0.52203899   0.00000
  0.35151815     0.52093346   0.00000
  0.29674042     0.51125937   0.00000
  0.30860409     0.52002224   0.00000
  0.31039025     0.51896866   0.00000
  0.24084028     0.50718956   0.00000
  0.25082957     0.51504278   0.00000
  0.25237548     0.51407998   0.00000
  0.16873512     0.50160036   0.00000
  0.17629665     0.50845495   0.00000
  0.17758030     0.50761812   0.00000
  0.08021751     0.49586332   0.00000
  0.08481380     0.50161349   0.00000
  0.08582615     0.50093454   0.00000
 -0.02532648     0.49138657   0.00000
 -0.02421406     0.49589384   0.00000
 -0.02347079     0.49540245   0.00000
 -0.14906862     0.48961974   0.00000
 -0.15192842     0.49269133   0.00000
 -0.15144264     0.49241681   0.00000
 -0.29293080     0.49200277   0.00000
 -0.30019167     0.49336236   0.00000
 -0.29994843     0.49333868   0.00000
 -0.45977742     0.49978234   0.00000
 -0.47174818     0.49904310   0.00000
 -0.47173906     0.49931612   0.00000
 -0.65344133     0.51357105   0.00000
 -0.67019199     0.51025346   0.00000
 -0.67044055     0.51088537   0.00000
 -0.87767944     0.53258865   0.00000
 -0.89896992     0.52638420   0.00000
 -0.89949258     0.52738975   0.00000
 -1.13325489     0.55476684   0.00000
 -1.15840026     0.54585851   0.00000
 -1.15886296     0.54696474   0.00000
  0.46607256     0.68820719   0.00000
  0.48025287     0.70112890   0.00000
  0.48305363     0.69987409   0.00000
  0.45971998     0.70839063   0.00000
  0.47421247     0.72038096   0.00000
  0.47660971     0.71922043   0.00000
  0.43325206     0.72202695   0.00000
  0.44711318     0.73312958   0.00000
  0.44935504     0.73197368   0.00000
  0.38727245     0.73057201   0.00000
  0.39998126     0.74072179   0.00000
  0.40201139     0.73960708   0.00000
  0.32224846     0.73541741   0.00000
  0.33330600     0.74454038   0.00000
  0.33509003     0.74350452   0.00000
  0.23846161     0.73788777   0.00000
  0.24739601     0.74590399   0.00000
  0.24891126     0.74498039   0.00000
  0.13594418     0.73925626   0.00000
  0.14230809     0.74607002   0.00000
  0.14354304     0.74528887   0.00000
  0.01443331     0.74074720   0.00000
  0.01780816     0.74623746   0.00000
  0.01876024     0.74562765   0.00000
 -0.12671568     0.74351852   0.00000
 -0.12671196     0.74753063   0.00000
 -0.12603744     0.74711954   0.00000
 -0.28856041     0.74860810   0.00000
 -0.29225621     0.75094534   0.00000
 -0.29184958     0.75076118   0.00000
 -0.47258382     0.75682632   0.00000
 -0.48022742     0.75725209   0.00000
 -0.48007702     0.75732401   0.00000
 -0.68052102     0.76858395   0.00000
 -0.69224432     0.76684819   0.00000
 -0.69234108     0.76720494   0.00000
 -0.91392421     0.78370365   0.00000
 -0.92972459     0.77963132   0.00000
 -0.93004876     0.78028583   0.00000
 -1.17313003     0.80146016   0.00000
 -1.19295321     0.79507537   0.00000
 -1.19345226     0.79599682   0.00000
 -1.45716014     0.82128655   0.00000
 -1.48063138     0.81266699   0.00000
 -1.48102053     0.81365987   0.00000
  0.56049323     0.95093708   0.00000
  0.57531947     0.96500865   0.00000
  0.57842081     0.96360611   0.00000
  0.52920402     0.97542209   0.00000
  0.54392301     0.98823642   0.00000
  0.54640993     0.98703063   0.00000
  0.47620093     0.99418653   0.00000
  0.48983233     1.00586906   0.00000
  0.49210226     1.00470814   0.00000
  0.40219527     1.00855092   0.00000
  0.41432530     1.01906905   0.00000
  0.41633763     1.01797716   0.00000
  0.30770399     1.01975019   0.00000
  0.31793749     1.02904241   0.00000
  0.31967183     1.02805211   0.00000
  0.19300368     1.02892599   0.00000
  0.20097315     1.03691970   0.00000
  0.20241803     1.03605836   0.00000
  0.05815295     1.03712481   0.00000
  0.06352041     1.04372937   0.00000
  0.06467235     1.04302308   0.00000
 -0.09705759     1.04528600   0.00000
 -0.09459725     1.05039181   0.00000
 -0.09373458     1.04986405   0.00000
 -0.27304712     1.05420713   0.00000
 -0.27375665     1.05768452   0.00000
 -0.27317421     1.05735796   0.00000
 -0.47045987     1.06449646   0.00000
 -0.47455061     1.06620290   0.00000
 -0.47423424     1.06609778   0.00000
 -0.68998615     1.07651158   0.00000
 -0.69760727     1.07630741   0.00000
 -0.69753897     1.07644121   0.00000
 -0.93221254     1.09032301   0.00000
 -0.94345311     1.08810515   0.00000
 -0.94360635     1.08848717   0.00000
 -1.19720985     1.10576024   0.00000
 -1.21212175     1.10149899   0.00000
 -1.21245534     1.10212752   0.00000
 -1.48441007     1.12261453   0.00000
 -1.50307013     1.11635228   0.00000
 -1.50354273     1.11721259   0.00000
 -1.79301366     1.14099135   0.00000
 -1.81519906     1.13272118   0.00000
 -1.81553455     1.13363224   0.00000
  0.62370031     1.28295889   0.00000
  0.63882672     1.29782023   0.00000
  0.64212090     1.29631840   0.00000
  0.56194201     1.31089706   0.00000
  0.57662121     1.32424820   0.00000
  0.57912644     1.32302992   0.00000
  0.47811314     1.33404568   0.00000
  0.49135850     1.34606293   0.00000
  0.49359817     1.34492424   0.00000
  0.37290085     1.35346743   0.00000
  0.38440375     1.36414410   0.00000
  0.38635231     1.36309738   0.00000
  0.24679889     1.37015529   0.00000
  0.25626198     1.37944522   0.00000
  0.25791082     1.37851671   0.00000
  0.10011410     1.38499598   0.00000
  0.10726644     1.39284269   0.00000
  0.10861337     1.39205501   0.00000
 -0.06703798     1.39876641   0.00000
 -0.06244143     1.40510279   0.00000
 -0.06139219     1.40447573   0.00000
 -0.25466394     1.41211540   0.00000
 -0.25283759     1.41686473   0.00000
 -0.25207650     1.41641663   0.00000
 -0.46287850     1.42554543   0.00000
 -0.46400306     1.42862790   0.00000
 -0.46351500     1.42837439   0.00000
 -0.69181695     1.43939505   0.00000
 -0.69603698     1.44073552   0.00000
 -0.69580175     1.44068937   0.00000
 -0.94158269     1.45383845   0.00000
 -0.94901156     1.45337921   0.00000
 -0.94900199     1.45354815   0.00000
 -1.21206809     1.46891868   0.00000
 -1.22279987     1.46662867   0.00000
 -1.22298194     1.46701577   0.00000
 -1.50294349     1.48463352   0.00000
 -1.51707194     1.48050852   0.00000
 -1.51740526     1.48111444   0.00000
 -1.81366371     1.50104330   0.00000
 -1.83132874     1.49509476   0.00000
 -1.83177940     1.49590981   0.00000
 -2.14391583     1.51850568   0.00000
 -2.16494586     1.51066131   0.00000
 -2.16523561     1.51150651   0.00000
  0.64271755     1.69036202   0.00000
  0.65781073     1.70561654   0.00000
  0.66120151     1.70405837   0.00000
  0.54740972     1.72046315   0.00000
  0.56181669     1.73404549   0.00000
  0.56428540     1.73283661   0.00000
  0.43067839     1.74666320   0.00000
  0.44342421     1.75876939   0.00000
  0.44559109     1.75767037   0.00000
  0.29311079     1.76973711   0.00000
  0.30397373     1.78038606   0.00000
  0.30582749     1.77939609   0.00000
  0.13517116     1.79042280   0.00000
  0.14393530     1.79958685   0.00000
  0.14547678     1.79872695   0.00000
 -0.04280215     1.80936285   0.00000
 -0.03633286     1.81701043   0.00000
 -0.03509773     1.81629738   0.00000
 -0.24056325     1.82710161   0.00000
 -0.23656389     1.83319682   0.00000
 -0.23562494     1.83264593   0.00000
 -0.45792460     1.84407526   0.00000
 -0.45654803     1.84858254   0.00000
 -0.45588990     1.84820676   0.00000
 -0.69471796     1.86060656   0.00000
 -0.69609389     1.86349430   0.00000
 -0.69569647     1.86330414   0.00000
 -0.95075553     1.87690640   0.00000
 -0.95499327     1.87815114   0.00000
 -0.95483044     1.87815348   0.00000
 -1.22580465     1.89309297   0.00000
 -1.23299910     1.89267936   0.00000
 -1.23303964     1.89287792   0.00000
 -1.51959199     1.90922958   0.00000
 -1.52983471     1.90714654   0.00000
 -1.53004305     1.90754227   0.00000
 -1.83184409     1.92537814   0.00000
 -1.84523561     1.92161146   0.00000
 -1.84557298     1.92220494   0.00000
 -2.16231919     1.94166568   0.00000
 -2.17901135     1.93618944   0.00000
 -2.17944527     1.93696827   0.00000
 -2.51124911     1.95848669   0.00000
 -2.53106860     1.95117742   0.00000
 -2.53131765     1.95196308   0.00000
  0.60663841     2.17613946   0.00000
  0.62140297     2.19141254   0.00000
  0.62481426     2.18982948   0.00000
  0.47706224     2.20702080   0.00000
  0.49099956     2.22054965   0.00000
  0.49339347     2.21936339   0.00000
  0.32739514     2.23479364   0.00000
  0.33954775     2.24677210   0.00000
  0.34161407     2.24572097   0.00000
  0.15814376     2.25997602   0.00000
  0.16835195     2.27044682   0.00000
  0.17009179     2.26951789   0.00000
 -0.03025252     2.28309821   0.00000
 -0.02214681     2.29205467   0.00000
 -0.02072409     2.29126365   0.00000
 -0.23741064     2.30461794   0.00000
 -0.23154971     2.31205368   0.00000
 -0.23043339     2.31141368   0.00000
 -0.46299196     2.32492114   0.00000
 -0.45950457     2.33083190   0.00000
 -0.45867987     2.33035437   0.00000
 -0.70662534     2.34431127   0.00000
 -0.70562298     2.34869729   0.00000
 -0.70507112     2.34839232   0.00000
 -0.96796901     2.36301008   0.00000
 -0.96954643     2.36587760   0.00000
 -0.96924238     2.36575141   0.00000
 -1.24667219     2.38115380   0.00000
 -1.25090780     2.38251029   0.00000
 -1.25082158     2.38256580   0.00000
 -1.54244331     2.39880756   0.00000
 -1.54940505     2.39865555   0.00000
 -1.54950168     2.39889197   0.00000
 -1.85503863     2.41599035   0.00000
 -1.86479232     2.41431756   0.00000
 -1.86503491     2.41473258   0.00000
 -2.18442256     2.43271948   0.00000
 -2.19704473     2.42949257   0.00000
 -2.19739317     2.43008240   0.00000
 -2.53074902     2.44906570   0.00000
 -2.54636641     2.44422016   0.00000
 -2.54678664     2.44496585   0.00000
 -2.89473293     2.46533717   0.00000
 -2.91314256     2.45870804   0.00000
 -2.91335543     2.45943550   0.00000
  0.50670268     2.74129340   0.00000
  0.52088850     2.75626382   0.00000
  0.52426608     2.75467649   0.00000
  0.34406665     2.77175661   0.00000
  0.35735870     2.78498706   0.00000
  0.35965286     2.78382899   0.00000
  0.16311794     2.79980456   0.00000
  0.17457829     2.81146980   0.00000
  0.17652564     2.81047047   0.00000
 -0.03573506     2.82577634   0.00000
 -0.02623053     2.83594333   0.00000
 -0.02461497     2.83507568   0.00000
 -0.25203058     2.85005791   0.00000
 -0.24460030     2.85873634   0.00000
 -0.24330452     2.85801415   0.00000
 -0.48537423     2.87299546   0.00000
 -0.48012750     2.88020186   0.00000
 -0.47913948     2.87963683   0.00000
 -0.73529277     2.89488013   0.00000
 -0.73232580     2.90063930   0.00000
 -0.73162902     2.90024237   0.00000
 -1.00133452     2.91593816   0.00000
 -1.00072640     2.92028431   0.00000
 -1.00029677     2.92006139   0.00000
 -1.28298653     2.93630275   0.00000
 -1.28479327     2.93927115   0.00000
 -1.28460022     2.93922379   0.00000
 -1.57987062     2.95601795   0.00000
 -1.58412828     2.95763583   0.00000
 -1.58413530     2.95776020   0.00000
 -1.89168761     2.97504373   0.00000
 -1.89841725     2.97531778   0.00000
 -1.89858541     2.97560738   0.00000
 -2.21843158     2.99329303   0.00000
 -2.22765176     2.99220137   0.00000
 -2.22793994     2.99264696   0.00000
 -2.56029794     3.01066414   0.00000
 -2.57203530     3.00814888   0.00000
 -2.57240152     3.00874067   0.00000
 -2.91786529     3.02710712   0.00000
 -2.93219560     3.02306425   0.00000
 -2.93260380     3.02377527   0.00000
 -3.29236891     3.04277561   0.00000
 -3.30904584     3.03700939   0.00000
 -3.30922758     3.03767729   0.00000
  0.33584371     3.38585905   0.00000
  0.34923273     3.40026034   0.00000
  0.35254411     3.39867857   0.00000
  0.14278217     3.41499799   0.00000
  0.15525863     3.42771977   0.00000
  0.15743645     3.42659221   0.00000
 -0.06663758     3.44235853   0.00000
 -0.05599836     3.45354439   0.00000
 -0.05417681     3.45259522   0.00000
 -0.29202492     3.46816225   0.00000
 -0.28332245     3.47789359   0.00000
 -0.28184015     3.47708798   0.00000
 -0.53295730     3.49272866   0.00000
 -0.52629172     3.50103058   0.00000
 -0.52514292     3.50038560   0.00000
 -0.78890598     3.51635410   0.00000
 -0.78436714     3.52327278   0.00000
 -0.78353932     3.52280235   0.00000
 -1.05927649     3.53927962   0.00000
 -1.05693233     3.54488026   0.00000
 -1.05640076     3.54459025   0.00000
 -1.34338821     3.56163690   0.00000
 -1.34327210     3.56598910   0.00000
 -1.34300233     3.56587791   0.00000
 -1.64065431     3.58343315   0.00000
 -1.64276553     3.58659630   0.00000
 -1.64271597     3.58665523   0.00000
 -1.95065624     3.60456087   0.00000
 -1.95496626     3.60656887   0.00000
 -1.95509263     3.60678519   0.00000
 -2.27330648     3.62483339   0.00000
 -2.27977199     3.62568573   0.00000
 -2.28002895     3.62604382   0.00000
 -2.60878517     3.64401902   0.00000
 -2.61735968     3.64367306   0.00000
 -2.61770367     3.64415700   0.00000
 -2.95765683     3.66188547   0.00000
 -2.96830298     3.66025486   0.00000
 -2.96869041     3.66084826   0.00000
 -3.32083518     3.67824857   0.00000
 -3.33355952     3.67519224   0.00000
 -3.33395399     3.67586193   0.00000
 -3.70005938     3.69308528   0.00000
 -3.71457102     3.68839290   0.00000
 -3.71473038     3.68899997   0.00000
  0.08799289     4.10950436   0.00000
  0.10039007     4.12310108   0.00000
  0.10360086     4.12153712   0.00000
 -0.13198954     4.13668582   0.00000
 -0.12052886     4.14870462   0.00000
 -0.11845670     4.14759987   0.00000
 -0.36634762     4.16270235   0.00000
 -0.35669242     4.17321718   0.00000
 -0.35500526     4.17231662   0.00000
 -0.61480163     4.18772001   0.00000
 -0.60706373     4.19682745   0.00000
 -0.60576049     4.19610498   0.00000
 -0.87672946     4.21208591   0.00000
 -0.87101601     4.21985980   0.00000
 -0.87008605     4.21933647   0.00000
 -1.15123540     4.23607930   0.00000
 -1.14761140     4.24263093   0.00000
 -1.14702220     4.24231014   0.00000
 -1.43734630     4.25982160   0.00000
 -1.43581857     4.26526768   0.00000
 -1.43552362     4.26513950   0.00000
 -1.73421581     4.28325448   0.00000
 -1.73473771     4.28769173   0.00000
 -1.73468332     4.28773753   0.00000
 -2.04126862     4.30617520   0.00000
 -2.04375388     4.30966321   0.00000
 -2.04388596     4.30986066   0.00000
 -2.35827742     4.32829111   0.00000
 -2.36261828     4.33084590   0.00000
 -2.36288506     4.33117167   0.00000
 -2.68539068     4.34927343   0.00000
 -2.69147220     4.35086548   0.00000
 -2.69182654     4.35129757   0.00000
 -3.02313353     4.36879451   0.00000
 -3.03084524     4.36935077   0.00000
 -3.03124434     4.36986864   0.00000
 -3.37240428     4.38654958   0.00000
 -3.38164563     4.38595541   0.00000
 -3.38204947     4.38653950   0.00000
 -3.73446733     4.40227750   0.00000
 -3.74517103     4.40036863   0.00000
 -3.74554504     4.40098417   0.00000
 -4.11127796     4.41579384   0.00000
 -4.12311975     4.41237631   0.00000
 -4.12327014     4.41292227   0.00000
 -0.24277613     4.91176694   0.00000
 -0.23171097     4.92438601   0.00000
 -0.22844821     4.92276596   0.00000
 -0.48587180     4.93654430   0.00000
 -0.47562427     4.94761579   0.00000
 -0.47365838     4.94650191   0.00000
 -0.74193480     4.96074340   0.00000
 -0.73348023     4.97027346   0.00000
 -0.73205927     4.96948233   0.00000
 -1.00995693     4.98472638   0.00000
 -1.00349316     4.99296391   0.00000
 -1.00254577     4.99243887   0.00000
 -1.28841369     5.00883503   0.00000
 -1.28401079     5.01598748   0.00000
 -1.28346398     5.01570622   0.00000
 -1.57580445     5.03308942   0.00000
 -1.57341743     5.03933527   0.00000
 -1.57319408     5.03926434   0.00000
 -1.87100271     5.05726467   0.00000
 -1.87051098     5.06272795   0.00000
 -1.87053568     5.06283033   0.00000
 -2.17328582     5.08099672   0.00000
 -2.17452629     5.08574044   0.00000
 -2.17473179     5.08598137   0.00000
 -2.48246900     5.10388810   0.00000
 -2.48526570     5.10792054   0.00000
 -2.48559346     5.10826858   0.00000
 -2.79876443     5.12556227   0.00000
 -2.80294466     5.12884575   0.00000
 -2.80334581     5.12927426   0.00000
 -3.12276281     5.14569356   0.00000
 -3.12816598     5.14815466   0.00000
 -3.12859958     5.14864120   0.00000
 -3.45527733     5.16400292   0.00000
 -3.46175534     5.16554000   0.00000
 -3.46218760     5.16606621   0.00000
 -3.79745565     5.18024770   0.00000
 -3.80486856     5.18073647   0.00000
 -3.80526922     5.18128537   0.00000
 -4.15069810     5.19419324   0.00000
 -4.15891705     5.19348118   0.00000
 -4.15925868     5.19402418   0.00000
 -4.51681580     5.20555339   0.00000
 -4.52551573     5.20351214   0.00000
 -4.52567480     5.20399585   0.00000
 -0.66413520     5.79250920   0.00000
 -0.65418470     5.80356658   0.00000
 -0.65128750     5.80204013   0.00000
 -0.92859653     5.81442199   0.00000
 -0.91970529     5.82389287   0.00000
 -0.91839106     5.82311280   0.00000
 -1.20309716     5.83710223   0.00000
 -1.19637899     5.84540785   0.00000
 -1.19564508     5.84503724   0.00000
 -1.48474918     5.86039848   0.00000
 -1.48019363     5.86793752   0.00000
 -1.47986897     5.86781720   0.00000
 -1.77142200     5.88389125   0.00000
 -1.76882596     5.89084178   0.00000
 -1.76879864     5.89091215   0.00000
 -2.06200422     5.90705146   0.00000
 -2.06110491     5.91349235   0.00000
 -2.06128605     5.91370485   0.00000
 -2.35605053     5.92938147   0.00000
 -2.35658314     5.93531938   0.00000
 -2.35690176     5.93563435   0.00000
 -2.65376587     5.95049370   0.00000
 -2.65549191     5.95588681   0.00000
 -2.65589176     5.95627117   0.00000
 -2.95563771     5.97011046   0.00000
 -2.95835174     5.97488607   0.00000
 -2.95879012     5.97531440   0.00000
 -3.26249477     5.98806231   0.00000
 -3.26602430     5.99213127   0.00000
 -3.26646869     5.99258357   0.00000
 -3.57521278     6.00424668   0.00000
 -3.57940984     6.00751253   0.00000
 -3.57983638     6.00797461   0.00000
 -3.89485129     6.01860268   0.00000
 -3.89958181     6.02096887   0.00000
 -3.89997213     6.02142982   0.00000
 -4.22244195     6.03105911   0.00000
 -4.22756924     6.03243264   0.00000
 -4.22790889     6.03288390   0.00000
 -4.55904830     6.04149201   0.00000
 -4.56442049     6.04178534   0.00000
 -4.56469528     6.04221528   0.00000
 -4.90597005     6.04960083   0.00000
 -4.91131560     6.04880699   0.00000
 -4.91148094     6.04920612   0.00000
 -1.19495740     6.75552926   0.00000
 -1.18715930     6.76493821   0.00000
 -1.18503997     6.76377873   0.00000
 -1.47513461     6.77636349   0.00000
 -1.46927549     6.78531057   0.00000
 -1.46888626     6.78511308   0.00000
 -1.75592268     6.79649991   0.00000
 -1.75218543     6.80482554   0.00000
 -1.75229757     6.80504407   0.00000
 -2.03605117     6.81529051   0.00000
 -2.03396665     6.82320008   0.00000
 -2.03433454     6.82359037   0.00000
 -2.31551631     6.83254597   0.00000
 -2.31468053     6.84004196   0.00000
 -2.31519276     6.84052664   0.00000
 -2.59495823     6.84817902   0.00000
 -2.59505530     6.85520409   0.00000
 -2.59564067     6.85573736   0.00000
 -2.87539309     6.86219680   0.00000
 -2.87618982     6.86867225   0.00000
 -2.87679747     6.86922012   0.00000
 -3.15786867     6.87466617   0.00000
 -3.15919483     6.88050674   0.00000
 -3.15978965     6.88104546   0.00000
 -3.44345578     6.88569193   0.00000
 -3.44518725     6.89081477   0.00000
 -3.44574577     6.89132864   0.00000
 -3.73316267     6.89539298   0.00000
 -3.73520577     6.89972248   0.00000
 -3.73571334     6.90020259   0.00000
 -4.02787110     6.90388193   0.00000
 -4.03014919     6.90735463   0.00000
 -4.03059744     6.90779743   0.00000
 -4.32841637     6.91125103   0.00000
 -4.33085644     6.91381896   0.00000
 -4.33124191     6.91422505   0.00000
 -4.63539983     6.91754735   0.00000
 -4.63791836     6.91918420   0.00000
 -4.63824192     6.91955793   0.00000
 -4.94925743     6.92274360   0.00000
 -4.95174117     6.92345917   0.00000
 -4.95200707     6.92380859   0.00000
 -5.27012657     6.92665081   0.00000
 -5.27243490     6.92655212   0.00000
 -5.27265304     6.92687310   0.00000
</DataArray> 
 <DataArray  type="Float64"  Name="stress" NumberOfComponents="3" format="ascii"> 
  4.04643380     2.08520375     1.27190265   
  6.64241574     4.07259456     0.59812441   
 -0.84339960    -0.14261513     0.01819779   
-27.70942613    -9.27044637    -8.43054928   
  4.04643380     2.08520375     1.27190265   
  6.64241574     4.07259456     0.59812441   
 -0.84339960    -0.14261513     0.01819779   
-27.70942613    -9.27044637    -8.43054928   
  3.41389082     2.17605093     0.54180530   
  4.83403854     3.18768405     0.33190980   
  6.08481079     3.99444038     0.49487466   
  7.53548634     4.96222890     0.74058552   
  9.02521383     6.01702409     1.00484755   
 10.39001080     7.03971294     1.25499662   
 11.50880391     7.92526177     1.46430887   
 12.32034426     8.60657628     1.62037225   
 12.82069431     9.06090644     1.72344195   
 13.04471157     9.30124086     1.78272495   
 13.03988567     9.35841472     1.81096232   
 12.84496933     9.26052109     1.81920232   
 12.48600418     9.02982100     1.82094271   
 11.97397152     8.63096298     1.83143936   
 11.92405571     8.52026229     2.25561298   
  6.23773589     3.95345531     0.60567340   
  3.39557448     2.71794764    -0.01196626   
  1.52864261     1.95416601    -0.21111462   
  0.42536221     1.49578052    -0.22549028   
 -0.24949856     1.16444422    -0.20578704   
 -0.66543576     0.90607597    -0.18357685   
 -0.92245087     0.69704790    -0.16379494   
 -1.08261309     0.52386819    -0.14639833   
 -1.18412188     0.37811321    -0.13076675   
 -1.24912130     0.25412888    -0.11646289   
 -1.28846661     0.14812627    -0.10320037   
 -1.30439969     0.05766232    -0.09071359   
 -1.29128446    -0.01876395    -0.07853082   
 -1.23439950    -0.08126651    -0.06488567   
 -1.10407229    -0.12689605    -0.04216350   
 -2.95293784    -0.36828935    -0.36312854   
 -5.65128140    -0.77447977    -0.67439338   
 -8.23388761    -1.22353224    -0.91692067   
-10.35011251    -1.63303534    -1.08469694   
-11.93500344    -1.96805223    -1.19538531   
-13.05910422    -2.22515624    -1.26897316   
-13.83272247    -2.41588549    -1.31988289   
-14.36617502    -2.55659049    -1.35816779   
-14.76376133    -2.66422795    -1.39218662   
-15.13345524    -2.75652896    -1.43102037   
-15.60768060    -2.85503541    -1.48734430   
-16.38753049    -2.99428930    -1.57930787   
-17.87472176    -3.28469070    -1.76542716   
-21.08058613    -3.99395369    -2.08382810   
-23.45381294    -5.85746498    -4.18640830   
-16.61424298    -5.97691396    -4.90975293   
-10.84724689    -4.18392672    -3.17430564   
 -6.60627290    -2.74496604    -1.93792793   
 -3.20481712    -1.54949236    -0.95729402   
 -0.38551330    -0.54030639    -0.14741202   
  1.95815902     0.30951097     0.52490992   
  3.87257969     1.01324736     1.07366180   
  5.37606622     1.57736779     1.50423486   
  6.47307486     2.00517081     1.81793697   
  7.16185662     2.29902207     2.01433308   
  7.44045938     2.46239868     2.09310031   
  7.31236934     2.50201434     2.05580310   
  6.79169526     2.43068007     1.90782547   
  5.89341145     2.27982641     1.65890811   
  4.60298971     2.30726303     1.45554433   
  3.41389082     2.17605093     0.54180530   
  4.83403854     3.18768405     0.33190980   
  6.08481079     3.99444038     0.49487466   
  7.53548634     4.96222890     0.74058552   
  9.02521383     6.01702409     1.00484755   
 10.39001080     7.03971294     1.25499662   
 11.50880391     7.92526177     1.46430887   
 12.32034426     8.60657628     1.62037225   
 12.82069431     9.06090644     1.72344195   
 13.04471157     9.30124086     1.78272495   
 13.03988567     9.35841472     1.81096232   
 12.84496933     9.26052109     1.81920232   
 12.48600418     9.02982100     1.82094271   
 11.97397152     8.63096298     1.83143936   
 11.92405571     8.52026229     2.25561298   
  6.23773589     3.95345531     0.60567340   
  3.39557448     2.71794764    -0.01196626   
  1.52864261     1.95416601    -0.21111462   
  0.42536221     1.49578052    -0.22549028   
 -0.24949856     1.16444422    -0.20578704   
 -0.66543576     0.90607597    -0.18357685   
 -0.92245087     0.69704790    -0.16379494   
 -1.08261309     0.52386819    -0.14639833   
 -1.18412188     0.37811321    -0.13076675   
 -1.24912130     0.25412888    -0.11646289   
 -1.28846661     0.14812627    -0.10320037   
 -1.30439969     0.05766232    -0.09071359   
 -1.29128446    -0.01876395    -0.07853082   
 -1.23439950    -0.08126651    -0.06488567   
 -1.10407229    -0.12689605    -0.04216350   
 -2.95293784    -0.36828935    -0.36312854   
 -5.65128140    -0.77447977    -0.67439338   
 -8.23388761    -1.22353224    -0.91692067   
-10.35011251    -1.63303534    -1.08469694   
-11.93500344    -1.96805223    -1.19538531   
-13.05910422    -2.22515624    -1.26897316   
-13.83272247    -2.41588549    -1.31988289   
-14.36617502    -2.55659049    -1.35816779   
-14.76376133    -2.66422795    -1.39218662   
-15.13345524    -2.75652896    -1.43102037   
-15.60768060    -2.85503541    -1.48734430   
-16.38753049    -2.99428930    -1.57930787   
-17.87472176    -3.28469070    -1.76542716   
-21.08058613    -3.99395369    -2.08382810   
-23.45381294    -5.85746498    -4.18640830   
-16.61424298    -5.97691396    -4.90975293   
-10.84724689    -4.18392672    -3.17430564   
 -6.60627290    -2.74496604    -1.93792793   
 -3.20481712    -1.54949236    -0.95729402   
 -0.38551330    -0.54030639    -0.14741202   
  1.95815902     0.30951097     0.52490992   
  3.87257969     1.01324736     1.07366180   
  5.37606622     1.57736779     1.50423486   
  6.47307486     2.00517081     1.81793697   
  7.16185662     2.29902207     2.01433308   
  7.44045938     2.46239868     2.09310031   
  7.31236934     2.50201434     2.05580310   
  6.79169526     2.43068007     1.90782547   
  5.89341145     2.27982641     1.65890811   
  4.60298971     2.30726303     1.45554433   
  3.94960586     2.37271372     0.66163288   
  5.19106211     2.32072907     0.83205094   
  6.08044898     2.31347243     0.99738573   
  6.62648634     2.26224174     1.10636418   
  6.81808395     2.13929090     1.15713117   
  6.63851880     1.93063354     1.14515211   
  6.08134696     1.62805924     1.06852161   
  5.14623450     1.22684336     0.92701742   
  3.83369971     0.72421940     0.72098129   
  2.13969931     0.11820007     0.45031293   
  0.04915729    -0.59314637     0.11334881   
 -2.47542296    -1.41195810    -0.29528678   
 -5.51876241    -2.33835775    -0.79011035   
 -9.28245803    -3.35951294    -1.41516779   
-14.29030583    -4.36231046    -2.31830729   
  5.13320026     3.30141490     0.41185094   
  6.39977361     3.06706921     0.60454985   
  7.25877130     2.76778699     0.72046509   
  7.71589643     2.43156387     0.79283535   
  7.75607026     2.05419548     0.82108887   
  7.37635230     1.62908759     0.80476597   
  6.58039121     1.15170899     0.74468168   
  5.37347113     0.61988937     0.64194189   
  3.75763044     0.03423424     0.49727861   
  1.72662906    -0.60083877     0.31021876   
 -0.74080361    -1.27491529     0.07780885   
 -3.69227822    -1.96715119    -0.20824995   
 -7.22268570    -2.63883654    -0.56873881   
-11.49898975    -3.22173406    -1.04680502   
-16.94683310    -3.78217762    -1.83144564   
  6.26378871     4.06735775     0.55895464   
  7.36029678     3.66210447     0.74662348   
  7.97208856     3.16428994     0.83854882   
  8.16138885     2.64166509     0.88536312   
  7.93180265     2.10134850     0.88585523   
  7.29162713     1.54455602     0.84088276   
  6.25101683     0.97232563     0.75189132   
  4.81810647     0.38775838     0.61995644   
  2.99589639    -0.20252128     0.44506143   
  0.77984854    -0.78674754     0.22541052   
 -1.84431922    -1.34654235    -0.04370254   
 -4.89940099    -1.85678680    -0.37122965   
 -8.40036896    -2.29193284    -0.76951495   
-12.29413574    -2.66560278    -1.25052452   
-15.95291962    -3.03324377    -1.70572287   
  7.44134894     4.92651008     0.71566019   
  8.25899137     4.35473474     0.86821185   
  8.54348944     3.69775589     0.92174245   
  8.41032343     3.04323911     0.93107058   
  7.88151649     2.39878866     0.89636460   
  6.97447118     1.76743249     0.81943486   
  5.70402922     1.15257600     0.70198604   
  4.08174230     0.55931881     0.54491802   
  2.11623754    -0.00486873     0.34817356   
 -0.18486143    -0.53041594     0.11072499   
 -2.80922576    -1.00784414    -0.16895549   
 -5.72375160    -1.43331410    -0.49035949   
 -8.83639979    -1.82092523    -0.84393827   
-11.89277735    -2.20739333    -1.18634515   
-14.44998545    -2.62306894    -1.44110832   
  8.62667832     5.86046054     0.88150455   
  9.06785482     5.16013783     0.98328968   
  8.98653131     4.38322540     0.99178195   
  8.52292236     3.63730096     0.96152106   
  7.70652865     2.92570825     0.89178216   
  6.55982090     2.24968138     0.78473721   
  5.10156556     1.61085136     0.64229657   
  3.34916846     1.01139894     0.46589689   
  1.32134027     0.45327493     0.25680781   
 -0.95680081    -0.06353960     0.01686545   
 -3.44480636    -0.54385506    -0.24986026   
 -6.07194903    -1.00078251    -0.53396001   
 -8.71689257    -1.45596477    -0.81555039   
-11.21640136    -1.92967948    -1.06522305   
-13.50856103    -2.43464997    -1.28785098   
  9.70515587     6.76895772     1.03733415   
  9.73216659     5.99329794     1.08069588   
  9.28459373     5.13787817     1.04175873   
  8.51455703     4.33270210     0.97344247   
  7.45033869     3.57655735     0.87249491   
  6.11566752     2.86731682     0.74101835   
  4.53216659     2.20272784     0.58127543   
  2.72249500     1.57984267     0.39564221   
  0.71365214     0.99393724     0.18701709   
 -1.45899766     0.43741120    -0.04031085   
 -3.74708857    -0.10090415    -0.27962605   
 -6.08690750    -0.63475727    -0.52087558   
 -8.40932606    -1.17663203    -0.75233139   
-10.67828104    -1.73332536    -0.96972082   
-12.92195643    -2.29864057    -1.19138121   
 10.59157288     7.56156725     1.16922485   
 10.22667274     6.76186224     1.15662441   
  9.45107100     5.86535686     1.07336803   
  8.42429600     5.02623171     0.97230596   
  7.16867642     4.23994424     0.84689507   
  5.70628107     3.50145544     0.69876937   
  4.05906279     2.80525478     0.53044929   
  2.25097691     2.14470178     0.34479061   
  0.30998075     1.51179417     0.14538233   
 -1.73135634     0.89702170    -0.06330353   
 -3.83675806     0.29030116    -0.27584343   
 -5.97241593    -0.31724784    -0.48694147   
 -8.11995522    -0.93106830    -0.69411132   
-10.28682638    -1.55046197    -0.90017423   
-12.50667351    -2.16431648    -1.12340941   
 11.24004940     8.17739362     1.27005827   
 10.55017894     7.39418579     1.21117018   
  9.51045132     6.48650029     1.09057490   
  8.28908966     5.63360938     0.96420527   
  6.90051202     4.82964447     0.82190672   
  5.36327315     4.06841586     0.66457037   
  3.69641587     3.34317430     0.49438960   
  1.92059646     2.64645538     0.31399290   
  0.05805176     1.97012036     0.12631380   
 -1.86853602     1.30581548    -0.06555650   
 -3.83949248     0.64576250    -0.25895918   
 -5.84328703    -0.01594740    -0.45255028   
 -7.88116925    -0.68200151    -0.64709265   
 -9.96768719    -1.34971688    -0.84613528   
-12.13496540    -2.00856156    -1.06908042   
 11.64537260     8.59323782     1.33986829   
 10.71756816     7.85368365     1.24767749   
  9.48488365     6.95723646     1.09827007   
  8.12850289     6.10811163     0.95401109   
  6.65529500     5.30125164     0.80135280   
  5.07909198     4.53081749     0.63999108   
  3.41434257     3.79070299     0.47143663   
  1.67622568     3.07415273     0.29743714   
 -0.11980715     2.37372899     0.11971416   
 -1.95925002     1.68170416    -0.06022581   
 -3.83127766     0.99087954    -0.24144089   
 -5.73169751     0.29578495    -0.42392567   
 -7.66524581    -0.40614089    -0.60893861   
 -9.64652908    -1.11271647    -0.80022833   
-11.70705204    -1.81492938    -1.01925366   
 11.82975538     8.81707218     1.38378553   
 10.74734433     8.13759270     1.27096492   
  9.38399980     7.26922727     1.10042163   
  7.93869307     6.44033262     0.94395153   
  6.41293604     5.64836663     0.78529899   
  4.81588642     4.88861767     0.62268984   
  3.15696678     4.15598104     0.45637931   
  1.44775123     3.44386882     0.28708258   
 -0.29795605     2.74416732     0.11572648   
 -2.06618672     2.04805089    -0.05668612   
 -3.84612440     1.34736001    -0.22949338   
 -5.63304823     0.63596233    -0.40265215   
 -7.43081183    -0.08926485    -0.57733273   
 -9.25347263    -0.82685379    -0.75774131   
-11.13291026    -1.56955816    -0.96777030   
 11.82412066     8.87316491     1.40922795   
 10.65116911     8.26376555     1.28561897   
  9.20058013     7.43660550     1.09892167   
  7.69594473     6.64438158     0.93408401   
  6.13369493     5.88741032     0.77226376   
  4.51610826     5.16173999     0.60864840   
  2.85203040     4.46163897     0.44222698   
  1.15829690     3.77806273     0.27366008   
 -0.54352081     3.10016200     0.10462357   
 -2.23326194     2.41729007    -0.06316390   
 -3.89637352     1.72084460    -0.22841631   
 -5.52695504     1.00508884    -0.39084831   
 -7.12883767     0.26748757    -0.55168484   
 -8.71622739    -0.49073499    -0.71593769   
-10.32105535    -1.26472335    -0.90961223   
 11.65143572     8.78329461     1.42198099   
 10.42675809     8.25181557     1.29370491   
  8.91630252     7.47998801     1.09654646   
  7.36604491     6.74108804     0.92757307   
  5.75473598     6.04003805     0.76093443   
  4.08898253     5.37069969     0.59001024   
  2.39687768     4.72127765     0.41579718   
  0.71557197     4.07758511     0.24189935   
 -0.92067353     3.42698067     0.07207654   
 -2.48707955     2.76047304    -0.09085270   
 -3.97083856     2.07289902    -0.24553108   
 -5.37007164     1.36210612    -0.39207556   
 -6.69204837     0.62764001    -0.53242766   
 -7.95140578    -0.12978832    -0.67264575   
 -9.17594163    -0.90948189    -0.83899791   
 11.32442401     8.56480328     1.43246380   
 10.07496474     8.12137099     1.31228143   
  8.51597125     7.41025986     1.11016564   
  6.86092171     6.74083601     0.92370688   
  5.11891651     6.11003532     0.73132714   
  3.35496198     5.49574357     0.53525061   
  1.63915191     4.88006490     0.34340339   
  0.02447132     4.25207378     0.16246071   
 -1.45848010     3.60747839    -0.00362412   
 -2.79853216     2.94669842    -0.15345559   
 -3.99795190     2.27236303    -0.28752346   
 -5.06657298     1.58707463    -0.40766614   
 -6.01699380     0.89142250    -0.51709715   
 -6.86119436     0.18287524    -0.62247718   
 -7.61323172    -0.54480572    -0.74607222   
 10.83713736     8.17626803     1.45262369   
  9.61928800     7.84345160     1.36644466   
  7.78423782     7.22486106     1.10970668   
  5.80220812     6.59626303     0.84902260   
  3.85333699     5.95495080     0.59903340   
  2.05850321     5.30022785     0.37223593   
  0.47546233     4.63795705     0.17475067   
 -0.88254756     3.97637001     0.00745443   
 -2.02818226     3.32383833    -0.13197883   
 -2.98543537     2.68714862    -0.24731741   
 -3.78014963     2.07045587    -0.34271383   
 -4.43360818     1.47449496    -0.42203589   
 -4.95855297     0.89571293    -0.48900156   
 -5.35589789     0.32554120    -0.54863165   
 -5.61281328    -0.24939699    -0.61275386   
 10.53378809     7.95751661     1.77006168   
  8.28893210     7.45003299     1.38643268   
  5.67414478     6.44538269     0.86759373   
  3.44886346     5.50565361     0.49073436   
  1.66551015     4.67053325     0.22264747   
  0.28026542     3.92506721     0.02898452   
 -0.77790607     3.25832920    -0.11192528   
 -1.58049890     2.66211104    -0.21477177   
 -2.18851684     2.12913427    -0.29016114   
 -2.64908255     1.65261387    -0.34572541   
 -2.99448470     1.22580421    -0.38663863   
 -3.24244547     0.84167995    -0.41593983   
 -3.39551623     0.49235323    -0.43480878   
 -3.43868798     0.16844498    -0.44271237   
 -3.33051560    -0.13607243    -0.43396212   
  3.94960586     2.37271372     0.66163288   
  5.19106211     2.32072907     0.83205094   
  6.08044898     2.31347243     0.99738573   
  6.62648634     2.26224174     1.10636418   
  6.81808395     2.13929090     1.15713117   
  6.63851880     1.93063354     1.14515211   
  6.08134696     1.62805924     1.06852161   
  5.14623450     1.22684336     0.92701742   
  3.83369971     0.72421940     0.72098129   
  2.13969931     0.11820007     0.45031293   
  0.04915729    -0.59314637     0.11334881   
 -2.47542296    -1.41195810    -0.29528678   
 -5.51876241    -2.33835775    -0.79011035   
 -9.28245803    -3.35951294    -1.41516779   
-14.29030583    -4.36231046    -2.31830729   
  5.13320026     3.30141490     0.41185094   
  6.39977361     3.06706921     0.60454985   
  7.25877130     2.76778699     0.72046509   
  7.71589643     2.43156387     0.79283535   
  7.75607026     2.05419548     0.82108887   
  7.37635230     1.62908759     0.80476597   
  6.58039121     1.15170899     0.74468168   
  5.37347113     0.61988937     0.64194189   
  3.75763044     0.03423424     0.49727861   
  1.72662906    -0.60083877     0.31021876   
 -0.74080361    -1.27491529     0.07780885   
 -3.69227822    -1.96715119    -0.20824995   
 -7.22268570    -2.63883654    -0.56873881   
-11.49898975    -3.22173406    -1.04680502   
-16.94683310    -3.78217762    -1.83144564   
  6.26378871     4.06735775     0.55895464   
  7.36029678     3.66210447     0.74662348   
  7.97208856     3.16428994     0.83854882   
  8.16138885     2.64166509     0.88536312   
  7.93180265     2.10134850     0.88585523   
  7.29162713     1.54455602     0.84088276   
  6.25101683     0.97232563     0.75189132   
  4.81810647     0.38775838     0.61995644   
  2.99589639    -0.20252128     0.44506143   
  0.77984854    -0.78674754     0.22541052   
 -1.84431922    -1.34654235    -0.04370254   
 -4.89940099    -1.85678680    -0.37122965   
 -8.40036896    -2.29193284    -0.76951495   
-12.29413574    -2.66560278    -1.25052452   
-15.95291962    -3.03324377    -1.70572287   
  7.44134894     4.92651008     0.71566019   
  8.25899137     4.35473474     0.86821185   
  8.54348944     3.69775589     0.92174245   
  8.41032343     3.04323911     0.93107058   
  7.88151649     2.39878866     0.89636460   
  6.97447118     1.76743249     0.81943486   
  5.70402922     1.15257600     0.70198604   
  4.08174230     0.55931881     0.54491802   
  2.11623754    -0.00486873     0.34817356   
 -0.18486143    -0.53041594     0.11072499   
 -2.80922576    -1.00784414    -0.16895549   
 -5.72375160    -1.43331410    -0.49035949   
 -8.83639979    -1.82092523    -0.84393827   
-11.89277735    -2.20739333    -1.18634515   
-14.44998545    -2.62306894    -1.44110832   
  8.62667832     5.86046054     0.88150455   
  9.06785482     5.16013783     0.98328968   
  8.98653131     4.38322540     0.99178195   
  8.52292236     3.63730096     0.96152106   
  7.70652865     2.92570825     0.89178216   
  6.55982090     2.24968138     0.78473721   
  5.10156556     1.61085136     0.64229657   
  3.34916846     1.01139894     0.46589689   
  1.32134027     0.45327493     0.25680781   
 -0.95680081    -0.06353960     0.01686545   
 -3.44480636    -0.54385506    -0.24986026   
 -6.07194903    -1.00078251    -0.53396001   
 -8.71689257    -1.45596477    -0.81555039   
-11.21640136    -1.92967948    -1.06522305   
-13.50856103    -2.43464997    -1.28785098   
  9.70515587     6.76895772     1.03733415   
  9.73216659     5.99329794     1.08069588   
  9.28459373     5.13787817     1.04175873   
  8.51455703     4.33270210     0.97344247   
  7.45033869     3.57655735     0.87249491   
  6.11566752     2.86731682     0.74101835   
  4.53216659     2.20272784     0.58127543   
  2.72249500     1.57984267     0.39564221   
  0.71365214     0.99393724     0.18701709   
 -1.45899766     0.43741120    -0.04031085   
 -3.74708857    -0.10090415    -0.27962605   
 -6.08690750    -0.63475727    -0.52087558   
 -8.40932606    -1.17663203    -0.75233139   
-10.67828104    -1.73332536    -0.96972082   
-12.92195643    -2.29864057    -1.19138121   
 10.59157288     7.56156725     1.16922485   
 10.22667274     6.76186224     1.15662441   
  9.45107100     5.86535686     1.07336803   
  8.42429600     5.02623171     0.97230596   
  7.16867642     4.23994424     0.84689507   
  5.70628107     3.50145544     0.69876937   
  4.05906279     2.80525478     0.53044929   
  2.25097691     2.14470178     0.34479061   
  0.30998075     1.51179417     0.14538233   
 -1.73135634     0.89702170    -0.06330353   
 -3.83675806     0.29030116    -0.27584343   
 -5.97241593    -0.31724784    -0.48694147   
 -8.11995522    -0.93106830    -0.69411132   
-10.28682638    -1.55046197    -0.90017423   
-12.50667351    -2.16431648    -1.12340941   
 11.24004940     8.17739362     1.27005827   
 10.55017894     7.39418579     1.21117018   
  9.51045132     6.48650029     1.09057490   
  8.28908966     5.63360938     0.96420527   
  6.90051202     4.82964447     0.82190672   
  5.36327315     4.06841586     0.66457037   
  3.69641587     3.34317430     0.49438960   
  1.92059646     2.64645538     0.31399290   
  0.05805176     1.97012036     0.12631380   
 -1.86853602     1.30581548    -0.06555650   
 -3.83949248     0.64576250    -0.25895918   
 -5.84328703    -0.01594740    -0.45255028   
 -7.88116925    -0.68200151    -0.64709265   
 -9.96768719    -1.34971688    -0.84613528   
-12.13496540    -2.00856156    -1.06908042   
 11.64537260     8.59323782     1.33986829   
 10.71756816     7.85368365     1.24767749   
  9.48488365     6.95723646     1.09827007   
  8.12850289     6.10811163     0.95401109   
  6.65529500     5.30125164     0.80135280   
  5.07909198     4.53081749     0.63999108   
  3.41434257     3.79070299     0.47143663   
  1.67622568     3.07415273     0.29743714   
 -0.11980715     2.37372899     0.11971416   
 -1.95925002     1.68170416    -0.06022581   
 -3.83127766     0.99087954    -0.24144089   
 -5.73169751     0.29578495    -0.42392567   
 -7.66524581    -0.40614089    -0.60893861   
 -9.64652908    -1.11271647    -0.80022833   
-11.70705204    -1.81492938    -1.01925366   
 11.82975538     8.81707218     1.38378553   
 10.74734433     8.13759270     1.27096492   
  9.38399980     7.26922727     1.10042163   
  7.93869307     6.44033262     0.94395153   
  6.41293604     5.64836663     0.78529899   
  4.81588642     4.88861767     0.62268984   
  3.15696678     4.15598104     0.45637931   
  1.44775123     3.44386882     0.28708258   
 -0.29795605     2.74416732     0.11572648   
 -2.06618672     2.04805089    -0.05668612   
 -3.84612440     1.34736001    -0.22949338   
 -5.63304823     0.63596233    -0.40265215   
 -7.43081183    -0.08926485    -0.57733273   
 -9.25347263    -0.82685379    -0.75774131   
-11.13291026    -1.56955816    -0.96777030   
 11.82412066     8.87316491     1.40922795   
 10.65116911     8.26376555     1.28561897   
  9.20058013     7.43660550     1.09892167   
  7.69594473     6.64438158     0.93408401   
  6.13369493     5.88741032     0.77226376   
  4.51610826     5.16173999     0.60864840   
  2.85203040     4.46163897     0.44222698   
  1.15829690     3.77806273     0.27366008   
 -0.54352081     3.10016200     0.10462357   
 -2.23326194     2.41729007    -0.06316390   
 -3.89637352     1.72084460    -0.22841631   
 -5.52695504     1.00508884    -0.39084831   
 -7.12883767     0.26748757    -0.55168484   
 -8.71622739    -0.49073499    -0.71593769   
-10.32105535    -1.26472335    -0.90961223   
 11.65143572     8.78329461     1.42198099   
 10.42675809     8.25181557     1.29370491   
  8.91630252     7.47998801     1.09654646   
  7.36604491     6.74108804     0.92757307   
  5.75473598     6.04003805     0.76093443   
  4.08898253     5.37069969     0.59001024   
  2.39687768     4.72127765     0.41579718   
  0.71557197     4.07758511     0.24189935   
 -0.92067353     3.42698067     0.07207654   
 -2.48707955     2.76047304    -0.09085270   
 -3.97083856     2.07289902    -0.24553108   
 -5.37007164     1.36210612    -0.39207556   
 -6.69204837     0.62764001    -0.53242766   
 -7.95140578    -0.12978832    -0.67264575   
 -9.17594163    -0.90948189    -0.83899791   
 11.32442401     8.56480328     1.43246380   
 10.07496474     8.12137099     1.31228143   
  8.51597125     7.41025986     1.11016564   
  6.86092171     6.74083601     0.92370688   
  5.11891651     6.11003532     0.73132714   
  3.35496198     5.49574357     0.53525061   
  1.63915191     4.88006490     0.34340339   
  0.02447132     4.25207378     0.16246071   
 -1.45848010     3.60747839    -0.00362412   
 -2.79853216     2.94669842    -0.15345559   
 -3.99795190     2.27236303    -0.28752346   
 -5.06657298     1.58707463    -0.40766614   
 -6.01699380     0.89142250    -0.51709715   
 -6.86119436     0.18287524    -0.62247718   
 -7.61323172    -0.54480572    -0.74607222   
 10.83713736     8.17626803     1.45262369   
  9.61928800     7.84345160     1.36644466   
  7.78423782     7.22486106     1.10970668   
  5.80220812     6.59626303     0.84902260   
  3.85333699     5.95495080     0.59903340   
  2.05850321     5.30022785     0.37223593   
  0.47546233     4.63795705     0.17475067   
 -0.88254756     3.97637001     0.00745443   
 -2.02818226     3.32383833    -0.13197883   
 -2.98543537     2.68714862    -0.24731741   
 -3.78014963     2.07045587    -0.34271383   
 -4.43360818     1.47449496    -0.42203589   
 -4.95855297     0.89571293    -0.48900156   
 -5.35589789     0.32554120    -0.54863165   
 -5.61281328    -0.24939699    -0.61275386   
 10.53378809     7.95751661     1.77006168   
  8.28893210     7.45003299     1.38643268   
  5.67414478     6.44538269     0.86759373   
  3.44886346     5.50565361     0.49073436   
  1.66551015     4.67053325     0.22264747   
  0.28026542     3.92506721     0.02898452   
 -0.77790607     3.25832920    -0.11192528   
 -1.58049890     2.66211104    -0.21477177   
 -2.18851684     2.12913427    -0.29016114   
 -2.64908255     1.65261387    -0.34572541   
 -2.99448470     1.22580421    -0.38663863   
 -3.24244547     0.84167995    -0.41593983   
 -3.39551623     0.49235323    -0.43480878   
 -3.43868798     0.16844498    -0.44271237   
 -3.33051560    -0.13607243    -0.43396212   
  5.19369524     3.26973201     0.61143373   
  6.28640148     3.98094309     0.68044676   
  7.41905502     4.79609492     0.80658094   
  8.51977228     5.68180312     0.90536026   
  9.48691821     6.55272844     0.97905380   
 10.24490174     7.31963609     1.02079478   
 10.75907803     7.92010592     1.03304224   
 11.03220579     8.32682140     1.02181120   
 11.08989860     8.54325521     0.99424969   
 10.96203217     8.59055867     0.95585696   
 10.66804180     8.49070858     0.90900327   
 10.20993548     8.25602289     0.85398030   
  9.57323801     7.87447399     0.79547513   
  8.62858974     7.28593516     0.73556202   
  6.13391416     5.67230175     0.43274923   
  3.71086958     2.78207820    -0.11349284   
  1.66443487     1.95202571    -0.35404121   
  0.51364337     1.48975946    -0.33384164   
 -0.14680530     1.17786804    -0.26373423   
 -0.52248458     0.94588685    -0.19382510   
 -0.73238866     0.76300248    -0.13400855   
 -0.84861446     0.61248752    -0.08499917   
 -0.91478251     0.48439471    -0.04583446   
 -0.95611055     0.37231181    -0.01553055   
 -0.98554141     0.27194974     0.00661936   
 -1.00725606     0.18033260     0.02104373   
 -1.01834539     0.09504437     0.02789116   
 -1.00837237     0.01431324     0.02768637   
 -0.95644797    -0.06284269     0.02372337   
 -0.81739095    -0.12998074     0.03430376   
 -0.77902546     0.01121919     0.13492935   
 -2.87059722    -0.18613253    -0.10803305   
 -5.74160983    -0.66532141    -0.46220374   
 -8.52115527    -1.21984629    -0.81135451   
-10.79512793    -1.72404501    -1.09134175   
-12.48257386    -2.12782587    -1.29304566   
-13.66077876    -2.42796874    -1.42967543   
-14.45233059    -2.64100747    -1.51816364   
-14.97823417    -2.78783759    -1.57305018   
-15.35004711    -2.88806339    -1.60585180   
-15.68014563    -2.95995580    -1.62646868   
-16.10317474    -3.02300636    -1.64502679   
-16.81995541    -3.10682651    -1.66642428   
-18.28709773    -3.35344835    -1.76409596   
-21.77493261    -4.10380088    -1.85697663   
-20.83905300    -6.29123114    -5.37020498   
-13.22757564    -4.49913162    -3.37047915   
 -8.57451356    -3.20684855    -2.19011174   
 -4.98593194    -2.06205854    -1.28191054   
 -2.04785223    -1.07645329    -0.53746200   
  0.40620512    -0.23278349     0.08594590   
  2.44686897     0.48031504     0.60554686   
  4.10387229     1.06897888     1.02814090   
  5.38693929     1.53600018     1.35546974   
  6.29574332     1.88263121     1.58680320   
  6.82590712     2.11007834     1.72047014   
  6.97434810     2.22124529     1.75536697   
  6.74443769     2.22261381     1.69239965   
  6.15013627     2.12666549     1.53600251   
  5.20194339     1.96254127     1.29275903   
  5.19369524     3.26973201     0.61143373   
  6.28640148     3.98094309     0.68044676   
  7.41905502     4.79609492     0.80658094   
  8.51977228     5.68180312     0.90536026   
  9.48691821     6.55272844     0.97905380   
 10.24490174     7.31963609     1.02079478   
 10.75907803     7.92010592     1.03304224   
 11.03220579     8.32682140     1.02181120   
 11.08989860     8.54325521     0.99424969   
 10.96203217     8.59055867     0.95585696   
 10.66804180     8.49070858     0.90900327   
 10.20993548     8.25602289     0.85398030   
  9.57323801     7.87447399     0.79547513   
  8.62858974     7.28593516     0.73556202   
  6.13391416     5.67230175     0.43274923   
  3.71086958     2.78207820    -0.11349284   
  1.66443487     1.95202571    -0.35404121   
  0.51364337     1.48975946    -0.33384164   
 -0.14680530     1.17786804    -0.26373423   
 -0.52248458     0.94588685    -0.19382510   
 -0.73238866     0.76300248    -0.13400855   
 -0.84861446     0.61248752    -0.08499917   
 -0.91478251     0.48439471    -0.04583446   
 -0.95611055     0.37231181    -0.01553055   
 -0.98554141     0.27194974     0.00661936   
 -1.00725606     0.18033260     0.02104373   
 -1.01834539     0.09504437     0.02789116   
 -1.00837237     0.01431324     0.02768637   
 -0.95644797    -0.06284269     0.02372337   
 -0.81739095    -0.12998074     0.03430376   
 -0.77902546     0.01121919     0.13492935   
 -2.87059722    -0.18613253    -0.10803305   
 -5.74160983    -0.66532141    -0.46220374   
 -8.52115527    -1.21984629    -0.81135451   
-10.79512793    -1.72404501    -1.09134175   
-12.48257386    -2.12782587    -1.29304566   
-13.66077876    -2.42796874    -1.42967543   
-14.45233059    -2.64100747    -1.51816364   
-14.97823417    -2.78783759    -1.57305018   
-15.35004711    -2.88806339    -1.60585180   
-15.68014563    -2.95995580    -1.62646868   
-16.10317474    -3.02300636    -1.64502679   
-16.81995541    -3.10682651    -1.66642428   
-18.28709773    -3.35344835    -1.76409596   
-21.77493261    -4.10380088    -1.85697663   
-20.83905300    -6.29123114    -5.37020498   
-13.22757564    -4.49913162    -3.37047915   
 -8.57451356    -3.20684855    -2.19011174   
 -4.98593194    -2.06205854    -1.28191054   
 -2.04785223    -1.07645329    -0.53746200   
  0.40620512    -0.23278349     0.08594590   
  2.44686897     0.48031504     0.60554686   
  4.10387229     1.06897888     1.02814090   
  5.38693929     1.53600018     1.35546974   
  6.29574332     1.88263121     1.58680320   
  6.82590712     2.11007834     1.72047014   
  6.97434810     2.22124529     1.75536697   
  6.74443769     2.22261381     1.69239965   
  6.15013627     2.12666549     1.53600251   
  5.20194339     1.96254127     1.29275903   
  4.54901340     2.05795891     0.59819914   
  5.47212445     3.36532628     0.65165209   
  6.44787411     3.07436517     0.75758888   
  5.49363537     2.06879905     0.76862140   
  6.63990814     3.13878498     0.78028754   
  7.30219242     2.81349371     0.82623074   
  6.11373389     2.04195075     0.88481330   
  7.34785152     2.82267151     0.81116427   
  7.76202840     2.51344519     0.84314480   
  6.40423256     1.95346176     0.95155209   
  7.65863784     2.46852936     0.79681592   
  7.81291179     2.16522708     0.81588191   
  6.34861005     1.78973116     0.96538627   
  7.56610979     2.06949312     0.74357070   
  7.45120592     1.76008578     0.74593447   
  5.94055588     1.54280647     0.92513683   
  7.06807115     1.61714603     0.65260339   
  6.68036561     1.29284814     0.63553579   
  5.18089214     1.20854869     0.83137755   
  6.16670227     1.10558753     0.52499712   
  5.50556172     0.76037399     0.48652016   
  4.07272550     0.78529263     0.68553291   
  4.86460963     0.53049577     0.36121153   
  3.92902391     0.16138990     0.29979855   
  2.61665818     0.27292664     0.48910930   
  3.15986524    -0.11115974     0.16045842   
  1.94543758    -0.50291631     0.07505175   
  0.80595460    -0.32714022     0.24323863   
  1.04061561    -0.82087632    -0.07999299   
 -0.46364996    -1.22725514    -0.18973139   
 -1.38075403    -1.01053134    -0.05186650   
 -1.52278214    -1.59794624    -0.36623622   
 -3.33839262    -1.99777340    -0.49894816   
 -3.99308558    -1.76288398    -0.39754126   
 -4.59057620    -2.43684011    -0.71032028   
 -6.75337580    -2.77969132    -0.86001279   
 -7.14234943    -2.53270876    -0.79926245   
 -8.27627489    -3.31929715    -1.13579980   
-10.82389706    -3.48199256    -1.27882244   
-11.07612196    -3.08298977    -1.26808887   
-12.76438756    -4.18428937    -1.67932129   
-15.72522532    -3.86066585    -1.76493224   
-16.84513250    -3.19294730    -1.91336315   
-18.46284564    -4.89636694    -2.47964889   
-19.68129677    -3.40030776    -1.60563539   
  6.19398809     2.99070996     0.55580454   
  6.46115293     4.05118357     0.73983027   
  7.37196026     3.60104203     0.84470498   
  7.19903911     2.74505398     0.70442057   
  7.38307545     3.60251634     0.83850416   
  7.96138017     3.10086025     0.86626915   
  7.80713350     2.46349574     0.80803784   
  7.82749995     3.05048229     0.83222282   
  8.13974269     2.57370378     0.84799561   
  7.99344161     2.13835530     0.86425026   
  7.86809185     2.47408596     0.78758704   
  7.91053152     2.02740905     0.78985907   
  7.75333989     1.76246578     0.87237235   
  7.50740675     1.88105897     0.70515025   
  7.28158107     1.46258575     0.69315895   
  7.09164120     1.33192495     0.83415155   
  6.75076235     1.27102291     0.58543485   
  6.26302415     0.87919006     0.56001025   
  6.01624209     0.84574828     0.75203396   
  5.60472406     0.64236606     0.42889703   
  4.86342232     0.27894514     0.39213176   
  4.53338244     0.30633087     0.62851536   
  4.07350057    -0.00508756     0.23527785   
  3.08721770    -0.33275510     0.19070004   
  2.64364203    -0.27903003     0.46590158   
  2.15608254    -0.66830887     0.00332265   
  0.93312907    -0.94435510    -0.04355618   
  0.33730454    -0.89502563     0.26599956   
 -0.15614939    -1.33896029    -0.26962838   
 -1.60626893    -1.53416097    -0.30993200   
 -2.41223970    -1.51176677     0.02965958   
 -2.88063792    -1.99980915    -0.58772363   
 -4.54057733    -2.06411789    -0.60624745   
 -5.65932061    -2.07272970    -0.24508109   
 -6.03914435    -2.61844956    -0.95545267   
 -7.86208343    -2.47217454    -0.92405305   
 -9.49955428    -2.47806089    -0.56732995   
 -9.63106470    -3.13679915    -1.37048715   
-11.48510834    -2.68131915    -1.23822201   
-14.13165909    -2.69311572    -1.01641330   
-13.54591038    -3.46890409    -1.80270311   
-14.91665706    -2.72430087    -1.45535787   
-18.83208498    -3.15531986    -1.53688316   
-16.94811967    -3.50448774    -2.02451819   
-17.13897987    -2.92081134    -1.47009044   
  7.34366291     3.65525455     0.74042430   
  7.32226335     4.75682877     0.77248544   
  8.19731253     4.19441579     0.88965143   
  8.10263614     3.21009662     0.86069019   
  7.92290795     4.08529729     0.80032766   
  8.45690983     3.51523046     0.86614749   
  8.43245658     2.73815022     0.93591249   
  8.05205419     3.36049129     0.75520589   
  8.31294274     2.83866270     0.81104469   
  8.33719507     2.24615731     0.96315883   
  7.78851835     2.64140992     0.67795983   
  7.78576624     2.17330400     0.72196383   
  7.82763184     1.73627697     0.94394787   
  7.14832206     1.93581139     0.56776597   
  6.89251046     1.52270770     0.60072762   
  6.91754989     1.21112466     0.88135503   
  6.14398627     1.24547064     0.42512825   
  5.64844599     0.89057622     0.44970812   
  5.61943239     0.67569781     0.77842859   
  4.78664230     0.57232144     0.25066253   
  4.06651377     0.28289362     0.27106773   
  3.94193951     0.13910577     0.63777512   
  3.08536924    -0.07934573     0.04474778   
  2.15790969    -0.29034580     0.06698245   
  1.88800375    -0.38357059     0.46117848   
  1.04771504    -0.70119745    -0.19232841   
 -0.06545599    -0.81373911    -0.15977709   
 -0.54641176    -0.86934121     0.24906047   
 -1.31718423    -1.27918622    -0.45953920   
 -2.58483653    -1.26619652    -0.40469675   
 -3.37171453    -1.28734219    -0.00076742   
 -3.99053442    -1.79247788    -0.75327008   
 -5.36060254    -1.62434619    -0.65939303   
 -6.59620317    -1.60849065    -0.29554010   
 -6.92334904    -2.21411716    -1.06254976   
 -8.30229761    -1.87791485    -0.90818249   
-10.19300142    -1.85658986    -0.65494908   
 -9.99140174    -2.51989893    -1.35902528   
-11.20258534    -2.07260085    -1.12240882   
-13.87737581    -2.22752002    -1.09552085   
-12.88410788    -2.71237041    -1.57345147   
-13.73904158    -2.35690013    -1.28886843   
-16.71116352    -2.84722654    -1.47077151   
-15.15300476    -2.89163784    -1.65736425   
-15.78876523    -2.72507487    -1.42510900   
  8.53138785     4.45928147     0.94430446   
  8.12458474     5.52471066     0.77690624   
  8.89962257     4.89304638     0.90830654   
  8.94915199     3.84941902     1.02162368   
  8.33343731     4.67135663     0.73552598   
  8.79928221     4.08058235     0.84356319   
  8.93838683     3.23905171     1.05571583   
  8.13545198     3.82630434     0.65980006   
  8.33297595     3.30680248     0.75832202   
  8.52543526     2.63654679     1.04497294   
  7.57613598     3.01981410     0.55853407   
  7.52706452     2.57314877     0.64612789   
  7.73236223     2.04671989     0.99250181   
  6.68037833     2.25413326     0.42942906   
  6.40385301     1.88190098     0.50871647   
  6.57819089     1.47475801     0.90176439   
  5.46677220     1.53018219     0.27340133   
  4.98295372     1.23631088     0.34866092   
  5.07843760     0.92750069     0.77549567   
  3.95237332     0.85013297     0.09198162   
  3.28340106     0.64143258     0.16878449   
  3.24538053     0.41407427     0.61550723   
  2.15496365     0.21845486    -0.11270384   
  1.32631330     0.10392954    -0.02756332   
  1.08942128    -0.05461005     0.42246191   
  0.09610635    -0.35807951    -0.33738653   
 -0.86080735    -0.36942469    -0.23598371   
 -1.37720486    -0.46889232     0.19552968   
 -2.19302513    -0.87125505    -0.57653381   
 -3.23675127    -0.77548687    -0.45026928   
 -4.13117061    -0.82881366    -0.06793901   
 -4.66162884    -1.31398389    -0.82038177   
 -5.73608238    -1.12269637    -0.66178059   
 -7.11486863    -1.16277021    -0.37161936   
 -7.22394469    -1.68621093    -1.05230014   
 -8.25745806    -1.44346497    -0.85998123   
-10.17835848    -1.55088563    -0.71240504   
 -9.74273572    -2.00532486    -1.24756986   
-10.67728309    -1.80052741    -1.04015528   
-13.00977065    -2.07572921    -1.05685736   
-12.05895080    -2.31968174    -1.38900201   
-12.94490343    -2.25046508    -1.22465616   
-15.33830565    -2.60458526    -1.32951922   
-14.17479366    -2.70945471    -1.52473136   
-15.05046828    -2.63149255    -1.39268723   
  9.63777416     5.37995226     1.14608513   
  8.81173086     6.28467108     0.76071661   
  9.43548678     5.63647010     0.90077765   
  9.65676260     4.63724206     1.16827285   
  8.60243490     5.31151303     0.65063929   
  8.98290470     4.74113742     0.80013157   
  9.28879453     3.92567098     1.15688230   
  8.09002522     4.39851836     0.55094753   
  8.22479749     3.91148671     0.69214614   
  8.56479954     3.24771643     1.10687189   
  7.26840206     3.54705525     0.43377002   
  7.18526087     3.14152415     0.56484287   
  7.51103650     2.60600356     1.02126221   
  6.16511500     2.75453069     0.29501053   
  5.88813616     2.43025268     0.41964465   
  6.14884492     2.00324539     0.90299730   
  4.80269738     2.01963074     0.13634361   
  4.35574705     1.77721720     0.25917827   
  4.49693908     1.44222294     0.75420626   
  3.20360366     1.34197258    -0.03949376   
  2.61172366     1.18212848     0.08653355   
  2.57348481     0.92471307     0.57612374   
  1.39303251     0.72191186    -0.22883067   
  0.68358927     0.64331509    -0.09469990   
  0.39983120     0.44918387     0.36931168   
 -0.59758876     0.15940198    -0.42656558   
 -1.39410054     0.15551658    -0.28026374   
 -1.99342034     0.00673117     0.13404116   
 -2.72710687    -0.34805134    -0.62581712   
 -3.57725254    -0.29332915    -0.46547640   
 -4.55615640    -0.42438872    -0.12843997   
 -4.94086164    -0.80806228    -0.81764440   
 -5.81188393    -0.72488063    -0.64604707   
 -7.20359869    -0.88112460    -0.41271034   
 -7.17170019    -1.23675815    -0.99248921   
 -8.04399490    -1.16950797    -0.82091949   
 -9.80905178    -1.39888751    -0.70326607   
 -9.35664260    -1.66078394    -1.14585837   
-10.24750905    -1.65409458    -0.99664067   
-12.25709285    -1.96662305    -0.97922942   
-11.48375515    -2.11300925    -1.29011013   
-12.43995692    -2.17466083    -1.18624167   
-14.53702487    -2.45633848    -1.22901025   
-13.61088996    -2.60772157    -1.45884444   
-14.60363654    -2.55855133    -1.36496289   
 10.57518916     6.31953577     1.32513275   
  9.34351075     6.96197872     0.72999453   
  9.78964718     6.33987550     0.87267601   
 10.18964836     5.48324392     1.28792325   
  8.74088635     5.93133174     0.55962432   
  9.02883806     5.40756487     0.74407808   
  9.48518124     4.70123800     1.23127127   
  7.95524632     4.99523725     0.44324441   
  8.03285354     4.55406050     0.62163800   
  8.48676847     3.96899569     1.14419291   
  6.92439330     4.13066001     0.31876326   
  6.81893601     3.76669993     0.48717864   
  7.21936416     3.28465525     1.02844980   
  5.67361538     3.33078952     0.17946457   
  5.40931608     3.04112682     0.34139370   
  5.70455247     2.64593122     0.88623415   
  4.22627805     2.59203481     0.02745837   
  3.82611211     2.37260625     0.18659556   
  3.96323306     2.04913402     0.71920864   
  2.60651199     1.91054583    -0.13400571   
  2.09311315     1.75524710     0.02543557   
  2.01856981     1.48794149     0.52878026   
  0.84126035     1.28177544    -0.30095051   
  0.23702032     1.18089933    -0.13928605   
 -0.10092659     0.95185799     0.31644072   
 -1.03852050     0.69936626    -0.46885546   
 -1.71237609     0.63804601    -0.30494017   
 -2.35752534     0.42523801     0.08461791   
 -2.99788486     0.15399674    -0.63292897   
 -3.72394099     0.11150772    -0.46959698   
 -4.70111628    -0.11140707    -0.16216612   
 -5.00089512    -0.36748402    -0.78928199   
 -5.77056296    -0.41599994    -0.63313609   
 -7.07165539    -0.67439428    -0.41587623   
 -7.01884506    -0.88166205    -0.93706102   
 -7.83900427    -0.95881585    -0.79826398   
 -9.41892204    -1.26459248    -0.66663687   
 -9.04508226    -1.40560428    -1.08148078   
 -9.93617799    -1.52043383    -0.96969698   
-11.72955740    -1.85674499    -0.91079500   
-11.10043552    -1.94865964    -1.23285880   
-12.08526790    -2.08442504    -1.15526333   
-14.03698819    -2.34672377    -1.16147010   
-13.22869511    -2.50481560    -1.41313797   
-14.25923167    -2.47972986    -1.33555547   
 11.29163806     7.17504679     1.46894092   
  9.70000741     7.49995824     0.69162058   
  9.96920927     6.92990110     0.83081977   
 10.54229467     6.28339457     1.37560338   
  8.76729746     6.46187704     0.47265140   
  8.96616890     5.99567544     0.68224789   
  9.55180969     5.45632371     1.27843225   
  7.76764498     5.53525307     0.34603059   
  7.79562642     5.14086629     0.55243709   
  8.33440791     4.68347565     1.15960162   
  6.58723636     4.67894760     0.22109820   
  6.46586504     4.34786514     0.41680798   
  6.91109426     3.95906596     1.01932459   
  5.24551295     3.88300940     0.08764093   
  4.99526281     3.61036944     0.27492906   
  5.30160977     3.27660447     0.85906797   
  3.76332987     3.14252617    -0.05261558   
  3.40261955     2.92106703     0.12835592   
  3.52686002     2.62815782     0.68042765   
  2.16201909     2.45131679    -0.19687776   
  1.70754957     2.27145347    -0.02116150   
  1.61034072     2.00383133     0.48514622   
  0.46399433     1.80206492    -0.34223476   
 -0.06958881     1.65147347    -0.17209734   
 -0.42050623     1.39193624     0.27556148   
 -1.30769608     1.18586700    -0.48601164   
 -1.90897374     1.04969057    -0.32342418   
 -2.53448843     0.78022205     0.05495656   
 -3.13141783     0.59206220    -0.62640798   
 -3.79407113     0.45433640    -0.47502896   
 -4.69928211     0.15914355    -0.17210397   
 -4.99108174     0.00872860    -0.76337771   
 -5.71589633    -0.14438669    -0.62802427   
 -6.88995198    -0.47404374    -0.40069935   
 -6.88159859    -0.57553227    -0.89947396   
 -7.67589437    -0.75116757    -0.78443196   
 -9.09961128    -1.11256033    -0.62771720   
 -8.81151389    -1.16833970    -1.03938618   
 -9.68609439    -1.36292742    -0.94674253   
-11.34062712    -1.73436634    -0.85628868   
-10.80049127    -1.76995205    -1.18909443   
-11.76832153    -1.96223635    -1.12224153   
-13.65118055    -2.24643346    -1.11211909   
-12.88555216    -2.37138962    -1.36885514   
-13.89116059    -2.37917996    -1.29793165   
 11.77379564     7.86992628     1.57335514   
  9.88237974     7.87061241     0.65094060   
  9.99366227     7.36164629     0.78106219   
 10.73148189     6.95534793     1.43236978   
  8.69976617     6.85773882     0.39526671   
  8.81808888     6.44864940     0.61875158   
  9.52067979     6.10448706     1.30220742   
  7.54774175     5.96071347     0.26264562   
  7.53102168     5.60859467     0.48618303   
  8.14477872     5.30400157     1.15883038   
  6.27048585     5.12690310     0.14108032   
  6.13180770     4.82078197     0.35271613   
  6.61975276     4.54624168     1.00084350   
  4.87967028     4.34414440     0.01606167   
  4.63379199     4.07869664     0.21635570   
  4.96213665     3.82333870     0.82921683   
  3.39115944     3.60742585    -0.11191437   
  3.05074570     3.37490067     0.07770610   
  3.18965447     3.12657726     0.64534117   
  1.82079659     2.91025774    -0.24115456   
  1.39668633     2.70111361    -0.06238729   
  1.32183000     2.44666015     0.45100153   
  0.18456994     2.24520487    -0.36996672   
 -0.31431199     2.04830721    -0.20321355   
 -0.62053547     1.77442235     0.24846586   
 -1.50258617     1.60361400    -0.49725008   
 -2.06943762     1.40714109    -0.34440744   
 -2.61724834     1.10226869     0.04048399   
 -3.22842414     0.97592251    -0.62281618   
 -3.85902624     0.76919079    -0.48600229   
 -4.65288669     0.42588251    -0.17018426   
 -4.98604685     0.35257252    -0.74770924   
 -5.67900123     0.12845474    -0.62848698   
 -6.72141485    -0.25440094    -0.38151182   
 -6.77566062    -0.27419908    -0.87400698   
 -7.53249687    -0.51704165    -0.77271299   
 -8.82954547    -0.93244254    -0.59336254   
 -8.60573751    -0.90858153    -1.00460528   
 -9.43110622    -1.16368896    -0.92051160   
-10.99368463    -1.58885463    -0.81133807   
-10.49303260    -1.54934429    -1.14410299   
-11.39575064    -1.79476952    -1.08000105   
-13.25557925    -2.13735339    -1.07130654   
-12.47213095    -2.18781185    -1.31376184   
-13.39377979    -2.24125937    -1.24422077   
 12.03778292     8.36792356     1.64159576   
  9.90362067     8.07235279     0.61085291   
  9.88169600     7.62203664     0.72666888   
 10.78173345     7.45585723     1.46348951   
  8.54633555     7.10170713     0.32759764   
  8.59215334     6.74429754     0.55419488   
  9.41566422     6.60066797     1.30870423   
  7.29319019     6.24552584     0.19058568   
  7.23189992     5.93194358     0.42078035   
  7.93419532     5.78895906     1.14814389   
  5.95654461     5.44500342     0.07300178   
  5.79257779     5.16251801     0.29030864   
  6.34858571     5.01334015     0.97890623   
  4.54003004     4.68635985    -0.04433748   
  4.28278904     4.43047882     0.15900255   
  4.67113543     4.26671765     0.80135929   
  3.05418874     3.96543011    -0.16255952   
  2.71138804     3.72947416     0.02642119   
  2.91509888     3.54151565     0.61644035   
  1.51024506     3.27695295    -0.28083984   
  1.08937779     3.05250654    -0.10695108   
  1.09496451     2.82987256     0.42542106   
 -0.07950408     2.61448502    -0.39814095   
 -0.57018678     2.39165844    -0.24025368   
 -0.77415680     2.12430231     0.23000814   
 -1.70212466     1.97006469    -0.51362829   
 -2.25374556     1.73862921    -0.37246054   
 -2.67864645     1.41874636     0.03215063   
 -3.34645815     1.33439539    -0.62719402   
 -3.95055701     1.08574394    -0.50287137   
 -4.60985752     0.70957545    -0.16646398   
 -5.00521077     0.69838213    -0.73942366   
 -5.65502675     0.42750673    -0.63116800   
 -6.56714158    -0.00353234    -0.36501435   
 -6.67714075     0.05473553    -0.85162468   
 -7.36911185    -0.23826233    -0.75777393   
 -8.55981792    -0.71594838    -0.56437918   
 -8.36836928    -0.60045681    -0.96583144   
 -9.10339410    -0.90863731    -0.88453460   
-10.60511392    -1.41015728    -0.77195146   
-10.09392100    -1.26639545    -1.08653482   
-10.87884818    -1.56758591    -1.02088176   
-12.74920478    -2.00450204    -1.03212242   
-11.88768871    -1.93500857    -1.23678342   
-12.66349729    -2.04953655    -1.16551626   
 12.11260596     8.67028117     1.68133154   
  9.77723044     8.11984070     0.57159878   
  9.64196749     7.72101403     0.66814357   
 10.71275042     7.78053178     1.47601937   
  8.30098928     7.19800596     0.26576155   
  8.27776056     6.88726712     0.48620816   
  9.24341978     6.93967483     1.30369886   
  6.98044582     6.38921070     0.12333484   
  6.87039784     6.11500502     0.35181444   
  7.69458540     6.13689993     1.13209396   
  5.60480214     5.63220453     0.00807516   
  5.40402168     5.37980592     0.22357002   
  6.07324137     5.36598683     0.95656541   
  4.16910863     4.91092902    -0.10443997   
  3.88117665     4.67717736     0.09495934   
  4.38654090     4.62079071     0.77617078   
  2.68042923     4.22347642    -0.21662970   
  2.31107500     4.00222961    -0.03457093   
  2.64454038     3.89406704     0.59095416   
  1.15118518     3.56640882    -0.32741706   
  0.71044736     3.34819390    -0.16339039   
  0.86136842     3.17784406     0.40199115   
 -0.40178667     2.93301446    -0.43508782   
 -0.89973832     2.70630565    -0.28913343   
 -0.94670180     2.46423866     0.21112152   
 -1.96030928     2.31334368    -0.53843567   
 -2.49963932     2.06708067    -0.40977844   
 -2.76519731     1.74660621     0.02040020   
 -3.50881948     1.69614345    -0.63705572   
 -4.07469000     1.42207915    -0.52403912   
 -4.58513426     1.02055746    -0.16858236   
 -5.03727339     1.07110307    -0.73137601   
 -5.61811449     0.76532460    -0.63160012   
 -6.40593017     0.28482902    -0.35523481   
 -6.54277066     0.43067752    -0.82243422   
 -7.13186089     0.09439115    -0.73307037   
 -8.23717665    -0.45695809    -0.54105163   
 -8.03061953    -0.22896683    -0.91217167   
 -8.62663514    -0.58829398    -0.83088801   
-10.09734656    -1.18921782    -0.73553284   
 -9.51455942    -0.90699405    -1.00529730   
-10.12288422    -1.26746911    -0.93572009   
-12.03595870    -1.83419244    -0.98890601   
-11.02682694    -1.59574857    -1.12604225   
-11.58911678    -1.78708188    -1.05068944   
 12.02495785     8.80072738     1.70170301   
  9.50730899     8.02898896     0.53067069   
  9.26804698     7.67571494     0.60320775   
 10.53023694     7.94861264     1.47595531   
  7.94355848     7.15843260     0.20342178   
  7.85036369     6.89342890     0.41139154   
  8.99323488     7.14084788     1.29168155   
  6.57064999     6.40202754     0.05310071   
  6.40389300     6.17284255     0.27457829   
  7.39966742     6.36971977     1.11398944   
  5.15591103     5.69686901    -0.06401818   
  4.89673096     5.48751120     0.14347283   
  5.74735900     5.62872250     0.93400601   
  3.68688427     5.02852216    -0.17664393   
  3.33728621     4.83533248     0.01165107   
  4.04165762     4.91053595     0.74892302   
  2.17929626     4.39873255    -0.28569210   
  1.75342339     4.21063494    -0.11796490   
  2.29949279     4.20615011     0.55942211   
  0.65981867     3.80145406    -0.38829645   
  0.18016643     3.60315431    -0.24084146   
  0.54513130     3.50584309     0.36824172   
 -0.84242755     3.22393297    -0.48231860   
 -1.35052884     3.00074158    -0.35355617   
 -1.19676033     2.80083527     0.17881848   
 -2.30248383     2.65109641    -0.56708508   
 -2.81552456     2.39238885    -0.45435503   
 -2.90719857     2.08433884    -0.00594377   
 -3.70305962     2.06951812    -0.64305574   
 -4.20233802     1.77005152    -0.54298267   
 -4.57614187     1.35230436    -0.18427640   
 -5.03563370     1.46956584    -0.71130594   
 -5.50838730     1.12918447    -0.62020611   
 -6.20409923     0.60358507    -0.35609827   
 -6.29967434     0.84589895    -0.77320414   
 -6.73893252     0.46862642    -0.68753776   
 -7.80202940    -0.15888359    -0.52396436   
 -7.50131849     0.19700614    -0.83055270   
 -7.90511502    -0.20933929    -0.74810957   
 -9.38982669    -0.92241610    -0.69981672   
 -8.65231391    -0.47546492    -0.88799611   
 -9.02341092    -0.89143690    -0.81290834   
-11.01573345    -1.61421355    -0.93519302   
 -9.77778238    -1.16446046    -0.96861542   
-10.05767653    -1.44136059    -0.88651173   
 11.78631971     8.78421815     1.70881857   
  9.08243914     7.80695859     0.48459563   
  8.74343497     7.49793562     0.53241682   
 10.23049561     7.98636552     1.47027840   
  7.43856571     6.98748350     0.13577900   
  7.26986437     6.76757941     0.32823266   
  8.64774028     7.23167509     1.28116788   
  5.99271998     6.27623376    -0.03244179   
  5.72895675     6.10317322     0.17256722   
  6.99750706     6.51337488     1.09595279   
  4.49566386     5.63263124    -0.16261317   
  4.11842373     5.48347738     0.02334141   
  5.27883916     5.82133467     0.90227021   
  2.96070547     5.04568612    -0.27824453   
  2.49690158     4.90150336    -0.11606976   
  3.52113384     5.14417699     0.70120548   
  1.43599344     4.50471536    -0.37778828   
  0.92529772     4.34203397    -0.23892245   
  1.76748436     4.47020749     0.49872823   
 -0.03282901     3.98818637    -0.46028772   
 -0.55117199     3.78847064    -0.34193986   
  0.05933739     3.78978033     0.30139784   
 -1.41262511     3.47448363    -0.52711009   
 -1.90637316     3.22794152    -0.42507560   
 -1.57258406     3.09634657     0.11423026   
 -2.68465161     2.94773665    -0.58081341   
 -3.13079626     2.65287136    -0.49023020   
 -3.11135412     2.38639148    -0.06004065   
 -3.84203071     2.39939396    -0.62392045   
 -4.22609307     2.06041731    -0.53991586   
 -4.55307025     1.65853778    -0.22097142   
 -4.88601475     1.82690928    -0.65835428   
 -5.20016333     1.45061480    -0.57661137   
 -5.90406562     0.91271528    -0.37015952   
 -5.82198321     1.23147579    -0.68525486   
 -6.06266338     0.82460017    -0.60250675   
 -7.17835872     0.15029410    -0.51208474   
 -6.65650250     0.61553281    -0.70555886   
 -6.82182609     0.18355576    -0.62065129   
 -8.39488460    -0.62168154    -0.66072044   
 -7.39479361    -0.01887913    -0.72246675   
 -7.48235257    -0.46441557    -0.64000129   
 -9.58838709    -1.33732805    -0.86073140   
 -8.04495922    -0.66733823    -0.75380351   
 -7.99400421    -1.01681446    -0.66173279   
 11.41671034     8.64746945     1.72419737   
  8.47150059     7.43561696     0.43435577   
  8.01864619     7.15540604     0.45243201   
  9.83014035     7.91765077     1.48729957   
  6.66032793     6.62105372     0.02957589   
  6.29620826     6.45703974     0.17836061   
  8.13025048     7.22703012     1.27502516   
  5.01982299     5.96576488    -0.18283699   
  4.52014226     5.85648813    -0.02725382   
  6.31075832     6.56271081     1.04840364   
  3.38987848     5.43007040    -0.31838248   
  2.80202822     5.30889943    -0.18583325   
  4.44773684     5.90665035     0.81216501   
  1.83505512     4.95202506    -0.40844140   
  1.22880500     4.78659736    -0.30068922   
  2.62693436     5.24743502     0.58018801   
  0.41113822     4.49169417    -0.46603306   
 -0.15853810     4.26818997    -0.37876995   
  0.91373218     4.57923805     0.36374739   
 -0.85445266     4.02252471    -0.50173958   
 -1.35164362     3.74250262    -0.42837681   
 -0.65387075     3.90070366     0.16918409   
 -1.95614784     3.53262080    -0.52347863   
 -2.36139411     3.20696854    -0.45706142   
 -2.06203222     3.21320822    -0.00158952   
 -2.90129558     3.02125816    -0.53619454   
 -3.20689658     2.66422286    -0.47059971   
 -3.31347436     2.51904241    -0.14973640   
 -3.70305682     2.49381371    -0.54246998   
 -3.90855908     2.11863898    -0.47307387   
 -4.42054373     1.81966177    -0.27840492   
 -4.37474008     1.95779406    -0.54304260   
 -4.48273048     1.57382853    -0.46691959   
 -5.39903830     1.11432362    -0.39204893   
 -4.92578483     1.41976909    -0.53739673   
 -4.93830702     1.03065247    -0.45344467   
 -6.26402470     0.39961970    -0.49716533   
 -5.35834242     0.88336666    -0.52436195   
 -5.27327431     0.48617705    -0.43385554   
 -7.02631213    -0.32718232    -0.60758046   
 -5.66394091     0.34794889    -0.50394945   
 -5.47047407    -0.06077756    -0.41178320   
 -7.68632041    -1.00874603    -0.74853384   
 -5.82237722    -0.18795153    -0.48379330   
 -5.45800126    -0.55566242    -0.38028232   
 11.01960599     8.39588790     1.80758102   
  7.28614052     6.74550654     0.27658251   
  6.37638713     6.48135570     0.18086627   
  9.09984401     7.73252659     1.48631893   
  5.09910001     5.98526574    -0.19547981   
  4.25764374     5.75260285    -0.17975720   
  6.96671095     7.03649057     1.15194491   
  3.31139918     5.40703471    -0.38540642   
  2.47118345     5.15141717    -0.34920716   
  4.85050937     6.32429911     0.83302206   
  1.78169536     4.91574412    -0.44529592   
  1.01996838     4.60188732    -0.41612523   
  2.90343737     5.60722513     0.55062604   
  0.50590883     4.43700435    -0.45167559   
 -0.12733811     4.07395012    -0.42999986   
  1.19670987     4.89586248     0.31318788   
 -0.53353986     3.94940206    -0.43895834   
 -1.01997083     3.55855516    -0.41826111   
 -0.25407931     4.19876188     0.12029242   
 -1.36727316     3.45324458    -0.42199406   
 -1.70808949     3.05746337    -0.39496735   
 -1.46515709     3.52238200    -0.03319176   
 -2.02868679     2.95807425    -0.40566710   
 -2.23518476     2.57590439    -0.36685201   
 -2.46671636     2.87066157    -0.15432658   
 -2.54782211     2.47504682    -0.39040653   
 -2.63542621     2.11889462    -0.33684538   
 -3.29173776     2.24465278    -0.25046933   
 -2.94842420     2.01363103    -0.37472602   
 -2.93262704     1.68921172    -0.30582686   
 -3.96863904     1.64208108    -0.32838464   
 -3.24608343     1.57999883    -0.35641343   
 -3.13965968     1.28667409    -0.27350463   
 -4.51692653     1.05667318    -0.39409384   
 -3.44696281     1.17667455    -0.33286664   
 -3.25768510     0.90723755    -0.23897989   
 -4.94417081     0.47748918    -0.45386549   
 -3.54567145     0.80215955    -0.30125353   
 -3.27329572     0.54280077    -0.20101316   
 -5.24126073    -0.10909641    -0.51663782   
 -3.52157375     0.45101935    -0.25867320   
 -3.15127600     0.18434552    -0.15691472   
 -5.35364510    -0.65584683    -0.57658657   
 -3.32971336     0.11767829    -0.20070143   
 -2.80357092    -0.16063686    -0.09007379   
  9.60183924     7.95685757     1.76294081   
  5.72765494     5.54187821     0.40426333   
  3.24527118     4.16815079    -0.40973872   
  6.64619125     6.79765341     1.06978298   
  2.93015759     4.09567248    -0.33621950   
  1.60514338     3.35042884    -0.56026543   
  4.16094093     5.74947360     0.59139018   
  1.48152343     3.36005342    -0.40456355   
  0.60651763     2.83948871    -0.46546153   
  2.20145573     4.84619971     0.27225677   
  0.53812833     2.86219650    -0.32137961   
 -0.04445197     2.41847833    -0.34256816   
  0.70824991     4.06242580     0.05886203   
 -0.12441506     2.42475061    -0.24169750   
 -0.47717858     2.04612458    -0.24043966   
 -0.40900125     3.37754781    -0.08343472   
 -0.59698782     2.02595312    -0.18786864   
 -0.76494370     1.71447560    -0.16277567   
 -1.23851381     2.77584809    -0.17763337   
 -0.93240625     1.66690252    -0.15389003   
 -0.95464728     1.42137860    -0.10359639   
 -1.85481576     2.24432174    -0.23990398   
 -1.16694641     1.34951765    -0.13083377   
 -1.07708534     1.16497129    -0.05664774   
 -2.31542676     1.77192420    -0.28168008   
 -1.32576820     1.07380433    -0.11185477   
 -1.15192202     0.94238818    -0.01738850   
 -2.66096240     1.34858248    -0.31090001   
 -1.42543235     0.83776365    -0.09262659   
 -1.19057654     0.74986575     0.01698566   
 -2.91594216     0.96460059    -0.33270770   
 -1.47532642     0.63813550    -0.07069864   
 -1.19779877     0.58271375     0.04785930   
 -3.08964403     0.60949611    -0.35020472   
 -1.47831977     0.47073612    -0.04487845   
 -1.17223583     0.43497790     0.07542361   
 -3.17464234     0.27101798    -0.36484798   
 -1.43050573     0.33043025    -0.01479866   
 -1.10569677     0.29903986     0.09903856   
 -3.14009322    -0.06098068    -0.37407866   
 -1.31965987     0.21109052     0.01983718   
 -0.97933409     0.16461883     0.11904304   
 -2.88123799    -0.33944065    -0.33866605   
 -1.11869144     0.10599446     0.06298583   
 -0.75600324     0.02132171     0.14558217   
  4.54901340     2.05795891     0.59819914   
  5.47212445     3.36532628     0.65165209   
  6.44787411     3.07436517     0.75758888   
  5.49363537     2.06879905     0.76862140   
  6.63990814     3.13878498     0.78028754   
  7.30219242     2.81349371     0.82623074   
  6.11373389     2.04195075     0.88481330   
  7.34785152     2.82267151     0.81116427   
  7.76202840     2.51344519     0.84314480   
  6.40423256     1.95346176     0.95155209   
  7.65863784     2.46852936     0.79681592   
  7.81291179     2.16522708     0.81588191   
  6.34861005     1.78973116     0.96538627   
  7.56610979     2.06949312     0.74357070   
  7.45120592     1.76008578     0.74593447   
  5.94055588     1.54280647     0.92513683   
  7.06807115     1.61714603     0.65260339   
  6.68036561     1.29284814     0.63553579   
  5.18089214     1.20854869     0.83137755   
  6.16670227     1.10558753     0.52499712   
  5.50556172     0.76037399     0.48652016   
  4.07272550     0.78529263     0.68553291   
  4.86460963     0.53049577     0.36121153   
  3.92902391     0.16138990     0.29979855   
  2.61665818     0.27292664     0.48910930   
  3.15986524    -0.11115974     0.16045842   
  1.94543758    -0.50291631     0.07505175   
  0.80595460    -0.32714022     0.24323863   
  1.04061561    -0.82087632    -0.07999299   
 -0.46364996    -1.22725514    -0.18973139   
 -1.38075403    -1.01053134    -0.05186650   
 -1.52278214    -1.59794624    -0.36623622   
 -3.33839262    -1.99777340    -0.49894816   
 -3.99308558    -1.76288398    -0.39754126   
 -4.59057620    -2.43684011    -0.71032028   
 -6.75337580    -2.77969132    -0.86001279   
 -7.14234943    -2.53270876    -0.79926245   
 -8.27627489    -3.31929715    -1.13579980   
-10.82389706    -3.48199256    -1.27882244   
-11.07612196    -3.08298977    -1.26808887   
-12.76438756    -4.18428937    -1.67932129   
-15.72522532    -3.86066585    -1.76493224   
-16.84513250    -3.19294730    -1.91336315   
-18.46284564    -4.89636694    -2.47964889   
-19.68129677    -3.40030776    -1.60563539   
  6.19398809     2.99070996     0.55580454   
  6.46115293     4.05118357     0.73983027   
  7.37196026     3.60104203     0.84470498   
  7.19903911     2.74505398     0.70442057   
  7.38307545     3.60251634     0.83850416   
  7.96138017     3.10086025     0.86626915   
  7.80713350     2.46349574     0.80803784   
  7.82749995     3.05048229     0.83222282   
  8.13974269     2.57370378     0.84799561   
  7.99344161     2.13835530     0.86425026   
  7.86809185     2.47408596     0.78758704   
  7.91053152     2.02740905     0.78985907   
  7.75333989     1.76246578     0.87237235   
  7.50740675     1.88105897     0.70515025   
  7.28158107     1.46258575     0.69315895   
  7.09164120     1.33192495     0.83415155   
  6.75076235     1.27102291     0.58543485   
  6.26302415     0.87919006     0.56001025   
  6.01624209     0.84574828     0.75203396   
  5.60472406     0.64236606     0.42889703   
  4.86342232     0.27894514     0.39213176   
  4.53338244     0.30633087     0.62851536   
  4.07350057    -0.00508756     0.23527785   
  3.08721770    -0.33275510     0.19070004   
  2.64364203    -0.27903003     0.46590158   
  2.15608254    -0.66830887     0.00332265   
  0.93312907    -0.94435510    -0.04355618   
  0.33730454    -0.89502563     0.26599956   
 -0.15614939    -1.33896029    -0.26962838   
 -1.60626893    -1.53416097    -0.30993200   
 -2.41223970    -1.51176677     0.02965958   
 -2.88063792    -1.99980915    -0.58772363   
 -4.54057733    -2.06411789    -0.60624745   
 -5.65932061    -2.07272970    -0.24508109   
 -6.03914435    -2.61844956    -0.95545267   
 -7.86208343    -2.47217454    -0.92405305   
 -9.49955428    -2.47806089    -0.56732995   
 -9.63106470    -3.13679915    -1.37048715   
-11.48510834    -2.68131915    -1.23822201   
-14.13165909    -2.69311572    -1.01641330   
-13.54591038    -3.46890409    -1.80270311   
-14.91665706    -2.72430087    -1.45535787   
-18.83208498    -3.15531986    -1.53688316   
-16.94811967    -3.50448774    -2.02451819   
-17.13897987    -2.92081134    -1.47009044   
  7.34366291     3.65525455     0.74042430   
  7.32226335     4.75682877     0.77248544   
  8.19731253     4.19441579     0.88965143   
  8.10263614     3.21009662     0.86069019   
  7.92290795     4.08529729     0.80032766   
  8.45690983     3.51523046     0.86614749   
  8.43245658     2.73815022     0.93591249   
  8.05205419     3.36049129     0.75520589   
  8.31294274     2.83866270     0.81104469   
  8.33719507     2.24615731     0.96315883   
  7.78851835     2.64140992     0.67795983   
  7.78576624     2.17330400     0.72196383   
  7.82763184     1.73627697     0.94394787   
  7.14832206     1.93581139     0.56776597   
  6.89251046     1.52270770     0.60072762   
  6.91754989     1.21112466     0.88135503   
  6.14398627     1.24547064     0.42512825   
  5.64844599     0.89057622     0.44970812   
  5.61943239     0.67569781     0.77842859   
  4.78664230     0.57232144     0.25066253   
  4.06651377     0.28289362     0.27106773   
  3.94193951     0.13910577     0.63777512   
  3.08536924    -0.07934573     0.04474778   
  2.15790969    -0.29034580     0.06698245   
  1.88800375    -0.38357059     0.46117848   
  1.04771504    -0.70119745    -0.19232841   
 -0.06545599    -0.81373911    -0.15977709   
 -0.54641176    -0.86934121     0.24906047   
 -1.31718423    -1.27918622    -0.45953920   
 -2.58483653    -1.26619652    -0.40469675   
 -3.37171453    -1.28734219    -0.00076742   
 -3.99053442    -1.79247788    -0.75327008   
 -5.36060254    -1.62434619    -0.65939303   
 -6.59620317    -1.60849065    -0.29554010   
 -6.92334904    -2.21411716    -1.06254976   
 -8.30229761    -1.87791485    -0.90818249   
-10.19300142    -1.85658986    -0.65494908   
 -9.99140174    -2.51989893    -1.35902528   
-11.20258534    -2.07260085    -1.12240882   
-13.87737581    -2.22752002    -1.09552085   
-12.88410788    -2.71237041    -1.57345147   
-13.73904158    -2.35690013    -1.28886843   
-16.71116352    -2.84722654    -1.47077151   
-15.15300476    -2.89163784    -1.65736425   
-15.78876523    -2.72507487    -1.42510900   
  8.53138785     4.45928147     0.94430446   
  8.12458474     5.52471066     0.77690624   
  8.89962257     4.89304638     0.90830654   
  8.94915199     3.84941902     1.02162368   
  8.33343731     4.67135663     0.73552598   
  8.79928221     4.08058235     0.84356319   
  8.93838683     3.23905171     1.05571583   
  8.13545198     3.82630434     0.65980006   
  8.33297595     3.30680248     0.75832202   
  8.52543526     2.63654679     1.04497294   
  7.57613598     3.01981410     0.55853407   
  7.52706452     2.57314877     0.64612789   
  7.73236223     2.04671989     0.99250181   
  6.68037833     2.25413326     0.42942906   
  6.40385301     1.88190098     0.50871647   
  6.57819089     1.47475801     0.90176439   
  5.46677220     1.53018219     0.27340133   
  4.98295372     1.23631088     0.34866092   
  5.07843760     0.92750069     0.77549567   
  3.95237332     0.85013297     0.09198162   
  3.28340106     0.64143258     0.16878449   
  3.24538053     0.41407427     0.61550723   
  2.15496365     0.21845486    -0.11270384   
  1.32631330     0.10392954    -0.02756332   
  1.08942128    -0.05461005     0.42246191   
  0.09610635    -0.35807951    -0.33738653   
 -0.86080735    -0.36942469    -0.23598371   
 -1.37720486    -0.46889232     0.19552968   
 -2.19302513    -0.87125505    -0.57653381   
 -3.23675127    -0.77548687    -0.45026928   
 -4.13117061    -0.82881366    -0.06793901   
 -4.66162884    -1.31398389    -0.82038177   
 -5.73608238    -1.12269637    -0.66178059   
 -7.11486863    -1.16277021    -0.37161936   
 -7.22394469    -1.68621093    -1.05230014   
 -8.25745806    -1.44346497    -0.85998123   
-10.17835848    -1.55088563    -0.71240504   
 -9.74273572    -2.00532486    -1.24756986   
-10.67728309    -1.80052741    -1.04015528   
-13.00977065    -2.07572921    -1.05685736   
-12.05895080    -2.31968174    -1.38900201   
-12.94490343    -2.25046508    -1.22465616   
-15.33830565    -2.60458526    -1.32951922   
-14.17479366    -2.70945471    -1.52473136   
-15.05046828    -2.63149255    -1.39268723   
  9.63777416     5.37995226     1.14608513   
  8.81173086     6.28467108     0.76071661   
  9.43548678     5.63647010     0.90077765   
  9.65676260     4.63724206     1.16827285   
  8.60243490     5.31151303     0.65063929   
  8.98290470     4.74113742     0.80013157   
  9.28879453     3.92567098     1.15688230   
  8.09002522     4.39851836     0.55094753   
  8.22479749     3.91148671     0.69214614   
  8.56479954     3.24771643     1.10687189   
  7.26840206     3.54705525     0.43377002   
  7.18526087     3.14152415     0.56484287   
  7.51103650     2.60600356     1.02126221   
  6.16511500     2.75453069     0.29501053   
  5.88813616     2.43025268     0.41964465   
  6.14884492     2.00324539     0.90299730   
  4.80269738     2.01963074     0.13634361   
  4.35574705     1.77721720     0.25917827   
  4.49693908     1.44222294     0.75420626   
  3.20360366     1.34197258    -0.03949376   
  2.61172366     1.18212848     0.08653355   
  2.57348481     0.92471307     0.57612374   
  1.39303251     0.72191186    -0.22883067   
  0.68358927     0.64331509    -0.09469990   
  0.39983120     0.44918387     0.36931168   
 -0.59758876     0.15940198    -0.42656558   
 -1.39410054     0.15551658    -0.28026374   
 -1.99342034     0.00673117     0.13404116   
 -2.72710687    -0.34805134    -0.62581712   
 -3.57725254    -0.29332915    -0.46547640   
 -4.55615640    -0.42438872    -0.12843997   
 -4.94086164    -0.80806228    -0.81764440   
 -5.81188393    -0.72488063    -0.64604707   
 -7.20359869    -0.88112460    -0.41271034   
 -7.17170019    -1.23675815    -0.99248921   
 -8.04399490    -1.16950797    -0.82091949   
 -9.80905178    -1.39888751    -0.70326607   
 -9.35664260    -1.66078394    -1.14585837   
-10.24750905    -1.65409458    -0.99664067   
-12.25709285    -1.96662305    -0.97922942   
-11.48375515    -2.11300925    -1.29011013   
-12.43995692    -2.17466083    -1.18624167   
-14.53702487    -2.45633848    -1.22901025   
-13.61088996    -2.60772157    -1.45884444   
-14.60363654    -2.55855133    -1.36496289   
 10.57518916     6.31953577     1.32513275   
  9.34351075     6.96197872     0.72999453   
  9.78964718     6.33987550     0.87267601   
 10.18964836     5.48324392     1.28792325   
  8.74088635     5.93133174     0.55962432   
  9.02883806     5.40756487     0.74407808   
  9.48518124     4.70123800     1.23127127   
  7.95524632     4.99523725     0.44324441   
  8.03285354     4.55406050     0.62163800   
  8.48676847     3.96899569     1.14419291   
  6.92439330     4.13066001     0.31876326   
  6.81893601     3.76669993     0.48717864   
  7.21936416     3.28465525     1.02844980   
  5.67361538     3.33078952     0.17946457   
  5.40931608     3.04112682     0.34139370   
  5.70455247     2.64593122     0.88623415   
  4.22627805     2.59203481     0.02745837   
  3.82611211     2.37260625     0.18659556   
  3.96323306     2.04913402     0.71920864   
  2.60651199     1.91054583    -0.13400571   
  2.09311315     1.75524710     0.02543557   
  2.01856981     1.48794149     0.52878026   
  0.84126035     1.28177544    -0.30095051   
  0.23702032     1.18089933    -0.13928605   
 -0.10092659     0.95185799     0.31644072   
 -1.03852050     0.69936626    -0.46885546   
 -1.71237609     0.63804601    -0.30494017   
 -2.35752534     0.42523801     0.08461791   
 -2.99788486     0.15399674    -0.63292897   
 -3.72394099     0.11150772    -0.46959698   
 -4.70111628    -0.11140707    -0.16216612   
 -5.00089512    -0.36748402    -0.78928199   
 -5.77056296    -0.41599994    -0.63313609   
 -7.07165539    -0.67439428    -0.41587623   
 -7.01884506    -0.88166205    -0.93706102   
 -7.83900427    -0.95881585    -0.79826398   
 -9.41892204    -1.26459248    -0.66663687   
 -9.04508226    -1.40560428    -1.08148078   
 -9.93617799    -1.52043383    -0.96969698   
-11.72955740    -1.85674499    -0.91079500   
-11.10043552    -1.94865964    -1.23285880   
-12.08526790    -2.08442504    -1.15526333   
-14.03698819    -2.34672377    -1.16147010   
-13.22869511    -2.50481560    -1.41313797   
-14.25923167    -2.47972986    -1.33555547   
 11.29163806     7.17504679     1.46894092   
  9.70000741     7.49995824     0.69162058   
  9.96920927     6.92990110     0.83081977   
 10.54229467     6.28339457     1.37560338   
  8.76729746     6.46187704     0.47265140   
  8.96616890     5.99567544     0.68224789   
  9.55180969     5.45632371     1.27843225   
  7.76764498     5.53525307     0.34603059   
  7.79562642     5.14086629     0.55243709   
  8.33440791     4.68347565     1.15960162   
  6.58723636     4.67894760     0.22109820   
  6.46586504     4.34786514     0.41680798   
  6.91109426     3.95906596     1.01932459   
  5.24551295     3.88300940     0.08764093   
  4.99526281     3.61036944     0.27492906   
  5.30160977     3.27660447     0.85906797   
  3.76332987     3.14252617    -0.05261558   
  3.40261955     2.92106703     0.12835592   
  3.52686002     2.62815782     0.68042765   
  2.16201909     2.45131679    -0.19687776   
  1.70754957     2.27145347    -0.02116150   
  1.61034072     2.00383133     0.48514622   
  0.46399433     1.80206492    -0.34223476   
 -0.06958881     1.65147347    -0.17209734   
 -0.42050623     1.39193624     0.27556148   
 -1.30769608     1.18586700    -0.48601164   
 -1.90897374     1.04969057    -0.32342418   
 -2.53448843     0.78022205     0.05495656   
 -3.13141783     0.59206220    -0.62640798   
 -3.79407113     0.45433640    -0.47502896   
 -4.69928211     0.15914355    -0.17210397   
 -4.99108174     0.00872860    -0.76337771   
 -5.71589633    -0.14438669    -0.62802427   
 -6.88995198    -0.47404374    -0.40069935   
 -6.88159859    -0.57553227    -0.89947396   
 -7.67589437    -0.75116757    -0.78443196   
 -9.09961128    -1.11256033    -0.62771720   
 -8.81151389    -1.16833970    -1.03938618   
 -9.68609439    -1.36292742    -0.94674253   
-11.34062712    -1.73436634    -0.85628868   
-10.80049127    -1.76995205    -1.18909443   
-11.76832153    -1.96223635    -1.12224153   
-13.65118055    -2.24643346    -1.11211909   
-12.88555216    -2.37138962    -1.36885514   
-13.89116059    -2.37917996    -1.29793165   
 11.77379564     7.86992628     1.57335514   
  9.88237974     7.87061241     0.65094060   
  9.99366227     7.36164629     0.78106219   
 10.73148189     6.95534793     1.43236978   
  8.69976617     6.85773882     0.39526671   
  8.81808888     6.44864940     0.61875158   
  9.52067979     6.10448706     1.30220742   
  7.54774175     5.96071347     0.26264562   
  7.53102168     5.60859467     0.48618303   
  8.14477872     5.30400157     1.15883038   
  6.27048585     5.12690310     0.14108032   
  6.13180770     4.82078197     0.35271613   
  6.61975276     4.54624168     1.00084350   
  4.87967028     4.34414440     0.01606167   
  4.63379199     4.07869664     0.21635570   
  4.96213665     3.82333870     0.82921683   
  3.39115944     3.60742585    -0.11191437   
  3.05074570     3.37490067     0.07770610   
  3.18965447     3.12657726     0.64534117   
  1.82079659     2.91025774    -0.24115456   
  1.39668633     2.70111361    -0.06238729   
  1.32183000     2.44666015     0.45100153   
  0.18456994     2.24520487    -0.36996672   
 -0.31431199     2.04830721    -0.20321355   
 -0.62053547     1.77442235     0.24846586   
 -1.50258617     1.60361400    -0.49725008   
 -2.06943762     1.40714109    -0.34440744   
 -2.61724834     1.10226869     0.04048399   
 -3.22842414     0.97592251    -0.62281618   
 -3.85902624     0.76919079    -0.48600229   
 -4.65288669     0.42588251    -0.17018426   
 -4.98604685     0.35257252    -0.74770924   
 -5.67900123     0.12845474    -0.62848698   
 -6.72141485    -0.25440094    -0.38151182   
 -6.77566062    -0.27419908    -0.87400698   
 -7.53249687    -0.51704165    -0.77271299   
 -8.82954547    -0.93244254    -0.59336254   
 -8.60573751    -0.90858153    -1.00460528   
 -9.43110622    -1.16368896    -0.92051160   
-10.99368463    -1.58885463    -0.81133807   
-10.49303260    -1.54934429    -1.14410299   
-11.39575064    -1.79476952    -1.08000105   
-13.25557925    -2.13735339    -1.07130654   
-12.47213095    -2.18781185    -1.31376184   
-13.39377979    -2.24125937    -1.24422077   
 12.03778292     8.36792356     1.64159576   
  9.90362067     8.07235279     0.61085291   
  9.88169600     7.62203664     0.72666888   
 10.78173345     7.45585723     1.46348951   
  8.54633555     7.10170713     0.32759764   
  8.59215334     6.74429754     0.55419488   
  9.41566422     6.60066797     1.30870423   
  7.29319019     6.24552584     0.19058568   
  7.23189992     5.93194358     0.42078035   
  7.93419532     5.78895906     1.14814389   
  5.95654461     5.44500342     0.07300178   
  5.79257779     5.16251801     0.29030864   
  6.34858571     5.01334015     0.97890623   
  4.54003004     4.68635985    -0.04433748   
  4.28278904     4.43047882     0.15900255   
  4.67113543     4.26671765     0.80135929   
  3.05418874     3.96543011    -0.16255952   
  2.71138804     3.72947416     0.02642119   
  2.91509888     3.54151565     0.61644035   
  1.51024506     3.27695295    -0.28083984   
  1.08937779     3.05250654    -0.10695108   
  1.09496451     2.82987256     0.42542106   
 -0.07950408     2.61448502    -0.39814095   
 -0.57018678     2.39165844    -0.24025368   
 -0.77415680     2.12430231     0.23000814   
 -1.70212466     1.97006469    -0.51362829   
 -2.25374556     1.73862921    -0.37246054   
 -2.67864645     1.41874636     0.03215063   
 -3.34645815     1.33439539    -0.62719402   
 -3.95055701     1.08574394    -0.50287137   
 -4.60985752     0.70957545    -0.16646398   
 -5.00521077     0.69838213    -0.73942366   
 -5.65502675     0.42750673    -0.63116800   
 -6.56714158    -0.00353234    -0.36501435   
 -6.67714075     0.05473553    -0.85162468   
 -7.36911185    -0.23826233    -0.75777393   
 -8.55981792    -0.71594838    -0.56437918   
 -8.36836928    -0.60045681    -0.96583144   
 -9.10339410    -0.90863731    -0.88453460   
-10.60511392    -1.41015728    -0.77195146   
-10.09392100    -1.26639545    -1.08653482   
-10.87884818    -1.56758591    -1.02088176   
-12.74920478    -2.00450204    -1.03212242   
-11.88768871    -1.93500857    -1.23678342   
-12.66349729    -2.04953655    -1.16551626   
 12.11260596     8.67028117     1.68133154   
  9.77723044     8.11984070     0.57159878   
  9.64196749     7.72101403     0.66814357   
 10.71275042     7.78053178     1.47601937   
  8.30098928     7.19800596     0.26576155   
  8.27776056     6.88726712     0.48620816   
  9.24341978     6.93967483     1.30369886   
  6.98044582     6.38921070     0.12333484   
  6.87039784     6.11500502     0.35181444   
  7.69458540     6.13689993     1.13209396   
  5.60480214     5.63220453     0.00807516   
  5.40402168     5.37980592     0.22357002   
  6.07324137     5.36598683     0.95656541   
  4.16910863     4.91092902    -0.10443997   
  3.88117665     4.67717736     0.09495934   
  4.38654090     4.62079071     0.77617078   
  2.68042923     4.22347642    -0.21662970   
  2.31107500     4.00222961    -0.03457093   
  2.64454038     3.89406704     0.59095416   
  1.15118518     3.56640882    -0.32741706   
  0.71044736     3.34819390    -0.16339039   
  0.86136842     3.17784406     0.40199115   
 -0.40178667     2.93301446    -0.43508782   
 -0.89973832     2.70630565    -0.28913343   
 -0.94670180     2.46423866     0.21112152   
 -1.96030928     2.31334368    -0.53843567   
 -2.49963932     2.06708067    -0.40977844   
 -2.76519731     1.74660621     0.02040020   
 -3.50881948     1.69614345    -0.63705572   
 -4.07469000     1.42207915    -0.52403912   
 -4.58513426     1.02055746    -0.16858236   
 -5.03727339     1.07110307    -0.73137601   
 -5.61811449     0.76532460    -0.63160012   
 -6.40593017     0.28482902    -0.35523481   
 -6.54277066     0.43067752    -0.82243422   
 -7.13186089     0.09439115    -0.73307037   
 -8.23717665    -0.45695809    -0.54105163   
 -8.03061953    -0.22896683    -0.91217167   
 -8.62663514    -0.58829398    -0.83088801   
-10.09734656    -1.18921782    -0.73553284   
 -9.51455942    -0.90699405    -1.00529730   
-10.12288422    -1.26746911    -0.93572009   
-12.03595870    -1.83419244    -0.98890601   
-11.02682694    -1.59574857    -1.12604225   
-11.58911678    -1.78708188    -1.05068944   
 12.02495785     8.80072738     1.70170301   
  9.50730899     8.02898896     0.53067069   
  9.26804698     7.67571494     0.60320775   
 10.53023694     7.94861264     1.47595531   
  7.94355848     7.15843260     0.20342178   
  7.85036369     6.89342890     0.41139154   
  8.99323488     7.14084788     1.29168155   
  6.57064999     6.40202754     0.05310071   
  6.40389300     6.17284255     0.27457829   
  7.39966742     6.36971977     1.11398944   
  5.15591103     5.69686901    -0.06401818   
  4.89673096     5.48751120     0.14347283   
  5.74735900     5.62872250     0.93400601   
  3.68688427     5.02852216    -0.17664393   
  3.33728621     4.83533248     0.01165107   
  4.04165762     4.91053595     0.74892302   
  2.17929626     4.39873255    -0.28569210   
  1.75342339     4.21063494    -0.11796490   
  2.29949279     4.20615011     0.55942211   
  0.65981867     3.80145406    -0.38829645   
  0.18016643     3.60315431    -0.24084146   
  0.54513130     3.50584309     0.36824172   
 -0.84242755     3.22393297    -0.48231860   
 -1.35052884     3.00074158    -0.35355617   
 -1.19676033     2.80083527     0.17881848   
 -2.30248383     2.65109641    -0.56708508   
 -2.81552456     2.39238885    -0.45435503   
 -2.90719857     2.08433884    -0.00594377   
 -3.70305962     2.06951812    -0.64305574   
 -4.20233802     1.77005152    -0.54298267   
 -4.57614187     1.35230436    -0.18427640   
 -5.03563370     1.46956584    -0.71130594   
 -5.50838730     1.12918447    -0.62020611   
 -6.20409923     0.60358507    -0.35609827   
 -6.29967434     0.84589895    -0.77320414   
 -6.73893252     0.46862642    -0.68753776   
 -7.80202940    -0.15888359    -0.52396436   
 -7.50131849     0.19700614    -0.83055270   
 -7.90511502    -0.20933929    -0.74810957   
 -9.38982669    -0.92241610    -0.69981672   
 -8.65231391    -0.47546492    -0.88799611   
 -9.02341092    -0.89143690    -0.81290834   
-11.01573345    -1.61421355    -0.93519302   
 -9.77778238    -1.16446046    -0.96861542   
-10.05767653    -1.44136059    -0.88651173   
 11.78631971     8.78421815     1.70881857   
  9.08243914     7.80695859     0.48459563   
  8.74343497     7.49793562     0.53241682   
 10.23049561     7.98636552     1.47027840   
  7.43856571     6.98748350     0.13577900   
  7.26986437     6.76757941     0.32823266   
  8.64774028     7.23167509     1.28116788   
  5.99271998     6.27623376    -0.03244179   
  5.72895675     6.10317322     0.17256722   
  6.99750706     6.51337488     1.09595279   
  4.49566386     5.63263124    -0.16261317   
  4.11842373     5.48347738     0.02334141   
  5.27883916     5.82133467     0.90227021   
  2.96070547     5.04568612    -0.27824453   
  2.49690158     4.90150336    -0.11606976   
  3.52113384     5.14417699     0.70120548   
  1.43599344     4.50471536    -0.37778828   
  0.92529772     4.34203397    -0.23892245   
  1.76748436     4.47020749     0.49872823   
 -0.03282901     3.98818637    -0.46028772   
 -0.55117199     3.78847064    -0.34193986   
  0.05933739     3.78978033     0.30139784   
 -1.41262511     3.47448363    -0.52711009   
 -1.90637316     3.22794152    -0.42507560   
 -1.57258406     3.09634657     0.11423026   
 -2.68465161     2.94773665    -0.58081341   
 -3.13079626     2.65287136    -0.49023020   
 -3.11135412     2.38639148    -0.06004065   
 -3.84203071     2.39939396    -0.62392045   
 -4.22609307     2.06041731    -0.53991586   
 -4.55307025     1.65853778    -0.22097142   
 -4.88601475     1.82690928    -0.65835428   
 -5.20016333     1.45061480    -0.57661137   
 -5.90406562     0.91271528    -0.37015952   
 -5.82198321     1.23147579    -0.68525486   
 -6.06266338     0.82460017    -0.60250675   
 -7.17835872     0.15029410    -0.51208474   
 -6.65650250     0.61553281    -0.70555886   
 -6.82182609     0.18355576    -0.62065129   
 -8.39488460    -0.62168154    -0.66072044   
 -7.39479361    -0.01887913    -0.72246675   
 -7.48235257    -0.46441557    -0.64000129   
 -9.58838709    -1.33732805    -0.86073140   
 -8.04495922    -0.66733823    -0.75380351   
 -7.99400421    -1.01681446    -0.66173279   
 11.41671034     8.64746945     1.72419737   
  8.47150059     7.43561696     0.43435577   
  8.01864619     7.15540604     0.45243201   
  9.83014035     7.91765077     1.48729957   
  6.66032793     6.62105372     0.02957589   
  6.29620826     6.45703974     0.17836061   
  8.13025048     7.22703012     1.27502516   
  5.01982299     5.96576488    -0.18283699   
  4.52014226     5.85648813    -0.02725382   
  6.31075832     6.56271081     1.04840364   
  3.38987848     5.43007040    -0.31838248   
  2.80202822     5.30889943    -0.18583325   
  4.44773684     5.90665035     0.81216501   
  1.83505512     4.95202506    -0.40844140   
  1.22880500     4.78659736    -0.30068922   
  2.62693436     5.24743502     0.58018801   
  0.41113822     4.49169417    -0.46603306   
 -0.15853810     4.26818997    -0.37876995   
  0.91373218     4.57923805     0.36374739   
 -0.85445266     4.02252471    -0.50173958   
 -1.35164362     3.74250262    -0.42837681   
 -0.65387075     3.90070366     0.16918409   
 -1.95614784     3.53262080    -0.52347863   
 -2.36139411     3.20696854    -0.45706142   
 -2.06203222     3.21320822    -0.00158952   
 -2.90129558     3.02125816    -0.53619454   
 -3.20689658     2.66422286    -0.47059971   
 -3.31347436     2.51904241    -0.14973640   
 -3.70305682     2.49381371    -0.54246998   
 -3.90855908     2.11863898    -0.47307387   
 -4.42054373     1.81966177    -0.27840492   
 -4.37474008     1.95779406    -0.54304260   
 -4.48273048     1.57382853    -0.46691959   
 -5.39903830     1.11432362    -0.39204893   
 -4.92578483     1.41976909    -0.53739673   
 -4.93830702     1.03065247    -0.45344467   
 -6.26402470     0.39961970    -0.49716533   
 -5.35834242     0.88336666    -0.52436195   
 -5.27327431     0.48617705    -0.43385554   
 -7.02631213    -0.32718232    -0.60758046   
 -5.66394091     0.34794889    -0.50394945   
 -5.47047407    -0.06077756    -0.41178320   
 -7.68632041    -1.00874603    -0.74853384   
 -5.82237722    -0.18795153    -0.48379330   
 -5.45800126    -0.55566242    -0.38028232   
 11.01960599     8.39588790     1.80758102   
  7.28614052     6.74550654     0.27658251   
  6.37638713     6.48135570     0.18086627   
  9.09984401     7.73252659     1.48631893   
  5.09910001     5.98526574    -0.19547981   
  4.25764374     5.75260285    -0.17975720   
  6.96671095     7.03649057     1.15194491   
  3.31139918     5.40703471    -0.38540642   
  2.47118345     5.15141717    -0.34920716   
  4.85050937     6.32429911     0.83302206   
  1.78169536     4.91574412    -0.44529592   
  1.01996838     4.60188732    -0.41612523   
  2.90343737     5.60722513     0.55062604   
  0.50590883     4.43700435    -0.45167559   
 -0.12733811     4.07395012    -0.42999986   
  1.19670987     4.89586248     0.31318788   
 -0.53353986     3.94940206    -0.43895834   
 -1.01997083     3.55855516    -0.41826111   
 -0.25407931     4.19876188     0.12029242   
 -1.36727316     3.45324458    -0.42199406   
 -1.70808949     3.05746337    -0.39496735   
 -1.46515709     3.52238200    -0.03319176   
 -2.02868679     2.95807425    -0.40566710   
 -2.23518476     2.57590439    -0.36685201   
 -2.46671636     2.87066157    -0.15432658   
 -2.54782211     2.47504682    -0.39040653   
 -2.63542621     2.11889462    -0.33684538   
 -3.29173776     2.24465278    -0.25046933   
 -2.94842420     2.01363103    -0.37472602   
 -2.93262704     1.68921172    -0.30582686   
 -3.96863904     1.64208108    -0.32838464   
 -3.24608343     1.57999883    -0.35641343   
 -3.13965968     1.28667409    -0.27350463   
 -4.51692653     1.05667318    -0.39409384   
 -3.44696281     1.17667455    -0.33286664   
 -3.25768510     0.90723755    -0.23897989   
 -4.94417081     0.47748918    -0.45386549   
 -3.54567145     0.80215955    -0.30125353   
 -3.27329572     0.54280077    -0.20101316   
 -5.24126073    -0.10909641    -0.51663782   
 -3.52157375     0.45101935    -0.25867320   
 -3.15127600     0.18434552    -0.15691472   
 -5.35364510    -0.65584683    -0.57658657   
 -3.32971336     0.11767829    -0.20070143   
 -2.80357092    -0.16063686    -0.09007379   
  9.60183924     7.95685757     1.76294081   
  5.72765494     5.54187821     0.40426333   
  3.24527118     4.16815079    -0.40973872   
  6.64619125     6.79765341     1.06978298   
  2.93015759     4.09567248    -0.33621950   
  1.60514338     3.35042884    -0.56026543   
  4.16094093     5.74947360     0.59139018   
  1.48152343     3.36005342    -0.40456355   
  0.60651763     2.83948871    -0.46546153   
  2.20145573     4.84619971     0.27225677   
  0.53812833     2.86219650    -0.32137961   
 -0.04445197     2.41847833    -0.34256816   
  0.70824991     4.06242580     0.05886203   
 -0.12441506     2.42475061    -0.24169750   
 -0.47717858     2.04612458    -0.24043966   
 -0.40900125     3.37754781    -0.08343472   
 -0.59698782     2.02595312    -0.18786864   
 -0.76494370     1.71447560    -0.16277567   
 -1.23851381     2.77584809    -0.17763337   
 -0.93240625     1.66690252    -0.15389003   
 -0.95464728     1.42137860    -0.10359639   
 -1.85481576     2.24432174    -0.23990398   
 -1.16694641     1.34951765    -0.13083377   
 -1.07708534     1.16497129    -0.05664774   
 -2.31542676     1.77192420    -0.28168008   
 -1.32576820     1.07380433    -0.11185477   
 -1.15192202     0.94238818    -0.01738850   
 -2.66096240     1.34858248    -0.31090001   
 -1.42543235     0.83776365    -0.09262659   
 -1.19057654     0.74986575     0.01698566   
 -2.91594216     0.96460059    -0.33270770   
 -1.47532642     0.63813550    -0.07069864   
 -1.19779877     0.58271375     0.04785930   
 -3.08964403     0.60949611    -0.35020472   
 -1.47831977     0.47073612    -0.04487845   
 -1.17223583     0.43497790     0.07542361   
 -3.17464234     0.27101798    -0.36484798   
 -1.43050573     0.33043025    -0.01479866   
 -1.10569677     0.29903986     0.09903856   
 -3.14009322    -0.06098068    -0.37407866   
 -1.31965987     0.21109052     0.01983718   
 -0.97933409     0.16461883     0.11904304   
 -2.88123799    -0.33944065    -0.33866605   
 -1.11869144     0.10599446     0.06298583   
 -0.75600324     0.02132171     0.14558217   
</DataArray> 
 <DataArray  type="Float64"  Name="strain" NumberOfComponents="3" format="ascii"> 
  0.01215721     0.00195881    -0.00227035   
  0.02096480     0.00760173    -0.01046551   
 -0.00322430     0.00041978     0.00125601   
 -0.08959651     0.00628619     0.01065365   
  0.01215721     0.00195881    -0.00227035   
  0.02096480     0.00760173    -0.01046551   
 -0.00322430     0.00041978     0.00125601   
 -0.08959651     0.00628619     0.01065365   
  0.01039414     0.00395737    -0.00454071   
  0.01511264     0.00655160    -0.00829843   
  0.01895207     0.00808214    -0.01011560   
  0.02329857     0.00991763    -0.01203492   
  0.02767461     0.01203202    -0.01403130   
  0.03160639     0.01418484    -0.01589568   
  0.03476773     0.01613331    -0.01746364   
  0.03700904     0.01769745    -0.01863082   
  0.03834156     0.01879066    -0.01936415   
  0.03887809     0.01941204    -0.01968424   
  0.03875629     0.01961264    -0.01963411   
  0.03808421     0.01944508    -0.01924978   
  0.03692310     0.01895095    -0.01853522   
  0.03534100     0.01795736    -0.01740016   
  0.03476517     0.01706545    -0.01551073   
  0.01947999     0.00760173    -0.00980674   
  0.01033512     0.00681146    -0.00738409   
  0.00402291     0.00623563    -0.00502383   
  0.00017710     0.00574328    -0.00320733   
 -0.00214838     0.00520412    -0.00192108   
 -0.00352874     0.00464312    -0.00102308   
 -0.00432971     0.00409169    -0.00038470   
 -0.00478342     0.00357029     0.00008490   
 -0.00503330     0.00309032     0.00044414   
 -0.00516168     0.00265522     0.00072814   
 -0.00520778     0.00226251     0.00095561   
 -0.00517794     0.00190479     0.00113323   
 -0.00504838     0.00156872     0.00125793   
 -0.00476222     0.00123408     0.00131926   
 -0.00421342     0.00086790     0.00130851   
 -0.01093405     0.00250612     0.00253296   
 -0.02086648     0.00449289     0.00501334   
 -0.03036701     0.00608684     0.00768122   
 -0.03813917     0.00718963     0.01004099   
 -0.04394389     0.00788426     0.01190213   
 -0.04804346     0.00829307     0.01326522   
 -0.05084797     0.00851958     0.01421880   
 -0.05276699     0.00864285     0.01487465   
 -0.05418735     0.00873023     0.01534484   
 -0.05550876     0.00885125     0.01574390   
 -0.05721987     0.00909389     0.01620588   
 -0.06006181     0.00958305     0.01694095   
 -0.06543875     0.01042942     0.01832959   
 -0.07702901     0.01182148     0.02175414   
 -0.08176260     0.00973841     0.01842790   
 -0.05339297     0.00192114     0.00747038   
 -0.03455911     0.00009016     0.00534019   
 -0.02080562    -0.00072682     0.00346977   
 -0.00981112    -0.00120344     0.00187600   
 -0.00071679    -0.00152172     0.00052134   
  0.00683133    -0.00174164    -0.00062156   
  0.01298603    -0.00188250    -0.00156835   
  0.01780634    -0.00194689    -0.00232718   
  0.02130457    -0.00192853    -0.00290215   
  0.02347140    -0.00181534    -0.00329572   
  0.02429524    -0.00159068    -0.00351103   
  0.02378010    -0.00123375    -0.00355405   
  0.02196057    -0.00071670    -0.00343555   
  0.01884716     0.00005652    -0.00317225   
  0.01389659     0.00195881    -0.00247013   
  0.01039414     0.00395737    -0.00454071   
  0.01511264     0.00655160    -0.00829843   
  0.01895207     0.00808214    -0.01011560   
  0.02329857     0.00991763    -0.01203492   
  0.02767461     0.01203202    -0.01403130   
  0.03160639     0.01418484    -0.01589568   
  0.03476773     0.01613331    -0.01746364   
  0.03700904     0.01769745    -0.01863082   
  0.03834156     0.01879066    -0.01936415   
  0.03887809     0.01941204    -0.01968424   
  0.03875629     0.01961264    -0.01963411   
  0.03808421     0.01944508    -0.01924978   
  0.03692310     0.01895095    -0.01853522   
  0.03534100     0.01795736    -0.01740016   
  0.03476517     0.01706545    -0.01551073   
  0.01947999     0.00760173    -0.00980674   
  0.01033512     0.00681146    -0.00738409   
  0.00402291     0.00623563    -0.00502383   
  0.00017710     0.00574328    -0.00320733   
 -0.00214838     0.00520412    -0.00192108   
 -0.00352874     0.00464312    -0.00102308   
 -0.00432971     0.00409169    -0.00038470   
 -0.00478342     0.00357029     0.00008490   
 -0.00503330     0.00309032     0.00044414   
 -0.00516168     0.00265522     0.00072814   
 -0.00520778     0.00226251     0.00095561   
 -0.00517794     0.00190479     0.00113323   
 -0.00504838     0.00156872     0.00125793   
 -0.00476222     0.00123408     0.00131926   
 -0.00421342     0.00086790     0.00130851   
 -0.01093405     0.00250612     0.00253296   
 -0.02086648     0.00449289     0.00501334   
 -0.03036701     0.00608684     0.00768122   
 -0.03813917     0.00718963     0.01004099   
 -0.04394389     0.00788426     0.01190213   
 -0.04804346     0.00829307     0.01326522   
 -0.05084797     0.00851958     0.01421880   
 -0.05276699     0.00864285     0.01487465   
 -0.05418735     0.00873023     0.01534484   
 -0.05550876     0.00885125     0.01574390   
 -0.05721987     0.00909389     0.01620588   
 -0.06006181     0.00958305     0.01694095   
 -0.06543875     0.01042942     0.01832959   
 -0.07702901     0.01182148     0.02175414   
 -0.08176260     0.00973841     0.01842790   
 -0.05339297     0.00192114     0.00747038   
 -0.03455911     0.00009016     0.00534019   
 -0.02080562    -0.00072682     0.00346977   
 -0.00981112    -0.00120344     0.00187600   
 -0.00071679    -0.00152172     0.00052134   
  0.00683133    -0.00174164    -0.00062156   
  0.01298603    -0.00188250    -0.00156835   
  0.01780634    -0.00194689    -0.00232718   
  0.02130457    -0.00192853    -0.00290215   
  0.02347140    -0.00181534    -0.00329572   
  0.02429524    -0.00159068    -0.00351103   
  0.02378010    -0.00123375    -0.00355405   
  0.02196057    -0.00071670    -0.00343555   
  0.01884716     0.00005652    -0.00317225   
  0.01389659     0.00195881    -0.00247013   
  0.01215721     0.00395737    -0.00494025   
  0.01698091     0.00205518    -0.00568595   
  0.02034877     0.00076049    -0.00608316   
  0.02246362    -0.00023045    -0.00624102   
  0.02331663    -0.00101309    -0.00612033   
  0.02286313    -0.00161787    -0.00570237   
  0.02108949    -0.00206761    -0.00497720   
  0.01800031    -0.00238053    -0.00393962   
  0.01360056    -0.00256874    -0.00258558   
  0.00787658    -0.00263521    -0.00090823   
  0.00077239    -0.00256759     0.00110618   
 -0.00785300    -0.00232298     0.00348371   
 -0.01832089    -0.00178278     0.00626810   
 -0.03140022    -0.00060090     0.00950969   
 -0.04914448     0.00248109     0.01310991   
  0.01607688     0.00655160    -0.00847413   
  0.02119315     0.00386309    -0.00894201   
  0.02484918     0.00149606    -0.00915001   
  0.02699431    -0.00048422    -0.00900561   
  0.02757394    -0.00207581    -0.00848796   
  0.02658478    -0.00330099    -0.00758746   
  0.02404590    -0.00418325    -0.00629979   
  0.01997969    -0.00473894    -0.00462427   
  0.01439271    -0.00496895    -0.00256112   
  0.00725526    -0.00484757    -0.00011007   
 -0.00152669    -0.00430407     0.00273010   
 -0.01215863    -0.00318797     0.00595832   
 -0.02504165    -0.00120564     0.00955887   
 -0.04087371     0.00216802     0.01347765   
 -0.06105098     0.00740522     0.01754903   
  0.01950358     0.00808214    -0.01016156   
  0.02415071     0.00492011    -0.01024039   
  0.02708495     0.00208439    -0.01000946   
  0.02841312    -0.00028944    -0.00942221   
  0.02814257    -0.00217580    -0.00849636   
  0.02630398    -0.00358079    -0.00723989   
  0.02293501    -0.00451419    -0.00566045   
  0.01806317    -0.00497464    -0.00376721   
  0.01169254    -0.00493923    -0.00157180   
  0.00379300    -0.00435330     0.00090992   
 -0.00570898    -0.00312054     0.00365422   
 -0.01692398    -0.00110239     0.00662251   
 -0.02992774     0.00183613     0.00975270   
 -0.04447719     0.00559118     0.01294959   
 -0.05812492     0.00905740     0.01596050   
  0.02299479     0.00991763    -0.01197879   
  0.02676843     0.00646630    -0.01166362   
  0.02863056     0.00343275    -0.01100252   
  0.02887212     0.00096328    -0.01001999   
  0.02757188    -0.00093830    -0.00875091   
  0.02479364    -0.00228296    -0.00721254   
  0.02059064    -0.00307691    -0.00541998   
  0.01500189    -0.00331472    -0.00338960   
  0.00805298    -0.00297677    -0.00114095   
 -0.00023582    -0.00203270     0.00130123   
 -0.00982474    -0.00045756     0.00390466   
 -0.02058660     0.00172368     0.00662704   
 -0.03214776     0.00433270     0.00941304   
 -0.04349862     0.00686537     0.01217482   
 -0.05292293     0.00857704     0.01472323   
  0.02641636     0.01203202    -0.01385855   
  0.02889931     0.00857918    -0.01314043   
  0.02949612     0.00555893    -0.01207658   
  0.02857310     0.00316787    -0.01074618   
  0.02624513     0.00138486    -0.00919156   
  0.02259798     0.00018526    -0.00743245   
  0.01770248    -0.00044923    -0.00548571   
  0.01162392    -0.00053248    -0.00336909   
  0.00443326    -0.00008068    -0.00110231   
 -0.00377119     0.00087376     0.00129187   
 -0.01282677     0.00225818     0.00378695   
 -0.02244611     0.00392396     0.00635144   
 -0.03214175     0.00561507     0.00894523   
 -0.04127172     0.00701923     0.01151440   
 -0.04956724     0.00801709     0.01398045   
  0.02945307     0.01418484    -0.01561960   
  0.03043987     0.01099776    -0.01454777   
  0.02972281     0.00815989    -0.01313993   
  0.02769085     0.00594521    -0.01152294   
  0.02446249     0.00431883    -0.00974230   
  0.02013267     0.00324124    -0.00781551   
  0.01478786     0.00267478    -0.00575677   
  0.00851940     0.00257761    -0.00358024   
  0.00143746     0.00289495    -0.00130104   
 -0.00631251     0.00354882     0.00106466   
 -0.01453172     0.00442844     0.00349909   
 -0.02296087     0.00539031     0.00598250   
 -0.03132255     0.00628746     0.00849382   
 -0.03946947     0.00704430     0.01101504   
 -0.04749980     0.00774144     0.01349919   
  0.03188934     0.01613331    -0.01710687   
  0.03140451     0.01338749    -0.01575974   
  0.02947781     0.01083210    -0.01408624   
  0.02649894     0.00882900    -0.01225141   
  0.02257050     0.00734109    -0.01030276   
  0.01778485     0.00631976    -0.00825421   
  0.01223341     0.00571360    -0.00611538   
  0.00601652     0.00546389    -0.00389565   
 -0.00074869     0.00550074    -0.00160460   
 -0.00792589     0.00574168     0.00074799   
 -0.01536438     0.00609633     0.00315237   
 -0.02292464     0.00648224     0.00559983   
 -0.03052961     0.00685261     0.00808478   
 -0.03820654     0.00722255     0.01060405   
 -0.04608142     0.00769883     0.01311155   
  0.03362326     0.01769745    -0.01822070   
  0.03187429     0.01546312    -0.01668856   
  0.02894932     0.01322477    -0.01483404   
  0.02523898     0.01143048    -0.01285042   
  0.02082019     0.01005168    -0.01078856   
  0.01577351     0.00904025    -0.00865975   
  0.01018059     0.00834373    -0.00646995   
  0.00412985     0.00790431    -0.00422449   
 -0.00228351     0.00765924    -0.00192855   
 -0.00896245     0.00754417     0.00041304   
 -0.01582213     0.00750119     0.00279664   
 -0.02281095     0.00749122     0.00522088   
 -0.02992976     0.00750591     0.00768743   
 -0.03723573     0.00757772     0.01019634   
 -0.04484669     0.00781061     0.01269591   
  0.03466176     0.01879066    -0.01892686   
  0.03194864     0.01705644    -0.01729479   
  0.02827293     0.01512916    -0.01533746   
  0.02403946     0.01353343    -0.01326789   
  0.01929805     0.01225703    -0.01114244   
  0.01411140     0.01126037    -0.00897193   
  0.00854280     0.01049988    -0.00676031   
  0.00265899     0.00992822    -0.00451071   
 -0.00347136     0.00949503    -0.00222585   
 -0.00978277     0.00915019     0.00009215   
 -0.01622444     0.00885078     0.00244271   
 -0.02277302     0.00856989     0.00482739   
 -0.02944289     0.00830446     0.00724991   
 -0.03629058     0.00808524     0.00971018   
 -0.04342719     0.00801185     0.01214936   
  0.03507799     0.01941204    -0.01924105   
  0.03169911     0.01812840    -0.01757806   
  0.02749242     0.01649560    -0.01558219   
  0.02289363     0.01510216    -0.01347902   
  0.01793135     0.01395558    -0.01133237   
  0.01264998     0.01302818    -0.00915465   
  0.00709303     0.01228791    -0.00695002   
  0.00131386     0.01169367    -0.00472161   
 -0.00462370     0.01119534    -0.00247255   
 -0.01065438     0.01073965    -0.00020498   
 -0.01672594     0.01028018     0.00208054   
 -0.02281217     0.00978669     0.00438589   
 -0.02892333     0.00925271     0.00671476   
 -0.03511238     0.00870604     0.00906543   
 -0.04148685     0.00824258     0.01137188   
  0.03495761     0.01961264    -0.01919983   
  0.03114542     0.01873092    -0.01755545   
  0.02655969     0.01738702    -0.01556894   
  0.02168962     0.01622149    -0.01347206   
  0.01654317     0.01526249    -0.01133627   
  0.01113997     0.01449725    -0.00917882   
  0.00552348     0.01389345    -0.00700750   
 -0.00022888     0.01339390    -0.00482899   
 -0.00601983     0.01292732    -0.00264948   
 -0.01175800     0.01242487    -0.00047349   
 -0.01737641     0.01183313     0.00169697   
 -0.02284491     0.01112172     0.00386285   
 -0.02817431     0.01028658     0.00602688   
 -0.03341690     0.00935566     0.00818460   
 -0.03867502     0.00841791     0.01026449   
  0.03435941     0.01944508    -0.01883375   
  0.03025241     0.01894271    -0.01723947   
  0.02537337     0.01790453    -0.01528936   
  0.02026179     0.01701201    -0.01321827   
  0.01485778     0.01634135    -0.01110999   
  0.00920308     0.01586801    -0.00899158   
  0.00342302     0.01550990    -0.00687860   
 -0.00232109     0.01516137    -0.00478419   
 -0.00788156     0.01472624    -0.00271926   
 -0.01315186     0.01413541    -0.00069148   
 -0.01807620     0.01335124     0.00129540   
 -0.02264432     0.01236300     0.00324126   
 -0.02688245     0.01117993     0.00514758   
 -0.03084270     0.00982971     0.00700685   
 -0.03460559     0.00838000     0.00874652   
  0.03330098     0.01895095    -0.01813722   
  0.02897948     0.01882079    -0.01658648   
  0.02383937     0.01808968    -0.01467081   
  0.01824624     0.01762179    -0.01262728   
  0.01226603     0.01741985    -0.01054943   
  0.00618265     0.01731472    -0.00847984   
  0.00028845     0.01714119    -0.00644945   
 -0.00519956     0.01678398    -0.00448201   
 -0.01015855     0.01618444    -0.00259329   
 -0.01454602     0.01532918    -0.00079162   
 -0.01837362     0.01423202     0.00092061   
 -0.02168158     0.01291739     0.00254473   
 -0.02451717     0.01140660     0.00408230   
 -0.02691726     0.00971191     0.00552407   
 -0.02890387     0.00785194     0.00680536   
  0.03179388     0.01795736    -0.01700559   
  0.02742528     0.01819093    -0.01548951   
  0.02113547     0.01822671    -0.01357209   
  0.01427449     0.01840358    -0.01148207   
  0.00754857     0.01847696    -0.00937381   
  0.00142706     0.01828402    -0.00734153   
 -0.00387340     0.01777157    -0.00543710   
 -0.00831078     0.01695559    -0.00368277   
 -0.01194296     0.01588755    -0.00208270   
 -0.01486954     0.01462790    -0.00063133   
 -0.01719389     0.01322926     0.00068078   
 -0.01899738     0.01172475     0.00186279   
 -0.02032227     0.01011992     0.00291940   
 -0.02115588     0.00838760     0.00384190   
 -0.02141667     0.00647309     0.00458364   
  0.03046206     0.01706545    -0.01510932   
  0.02255197     0.01818969    -0.01334103   
  0.01392101     0.01793144    -0.01107306   
  0.00659979     0.01729510    -0.00878248   
  0.00079022     0.01641634    -0.00671266   
 -0.00362380     0.01532917    -0.00493046   
 -0.00688731     0.01410111    -0.00342421   
 -0.00925880     0.01280277    -0.00215702   
 -0.01096084     0.01149095    -0.00108939   
 -0.01216460     0.01020423    -0.00018714   
 -0.01298494     0.00896056     0.00057586   
 -0.01348067     0.00775678     0.00121716   
 -0.01365112     0.00656580     0.00174456   
 -0.01342563     0.00533146     0.00215344   
 -0.01263802     0.00397308     0.00242406   
  0.01215721     0.00395737    -0.00494025   
  0.01698091     0.00205518    -0.00568595   
  0.02034877     0.00076049    -0.00608316   
  0.02246362    -0.00023045    -0.00624102   
  0.02331663    -0.00101309    -0.00612033   
  0.02286313    -0.00161787    -0.00570237   
  0.02108949    -0.00206761    -0.00497720   
  0.01800031    -0.00238053    -0.00393962   
  0.01360056    -0.00256874    -0.00258558   
  0.00787658    -0.00263521    -0.00090823   
  0.00077239    -0.00256759     0.00110618   
 -0.00785300    -0.00232298     0.00348371   
 -0.01832089    -0.00178278     0.00626810   
 -0.03140022    -0.00060090     0.00950969   
 -0.04914448     0.00248109     0.01310991   
  0.01607688     0.00655160    -0.00847413   
  0.02119315     0.00386309    -0.00894201   
  0.02484918     0.00149606    -0.00915001   
  0.02699431    -0.00048422    -0.00900561   
  0.02757394    -0.00207581    -0.00848796   
  0.02658478    -0.00330099    -0.00758746   
  0.02404590    -0.00418325    -0.00629979   
  0.01997969    -0.00473894    -0.00462427   
  0.01439271    -0.00496895    -0.00256112   
  0.00725526    -0.00484757    -0.00011007   
 -0.00152669    -0.00430407     0.00273010   
 -0.01215863    -0.00318797     0.00595832   
 -0.02504165    -0.00120564     0.00955887   
 -0.04087371     0.00216802     0.01347765   
 -0.06105098     0.00740522     0.01754903   
  0.01950358     0.00808214    -0.01016156   
  0.02415071     0.00492011    -0.01024039   
  0.02708495     0.00208439    -0.01000946   
  0.02841312    -0.00028944    -0.00942221   
  0.02814257    -0.00217580    -0.00849636   
  0.02630398    -0.00358079    -0.00723989   
  0.02293501    -0.00451419    -0.00566045   
  0.01806317    -0.00497464    -0.00376721   
  0.01169254    -0.00493923    -0.00157180   
  0.00379300    -0.00435330     0.00090992   
 -0.00570898    -0.00312054     0.00365422   
 -0.01692398    -0.00110239     0.00662251   
 -0.02992774     0.00183613     0.00975270   
 -0.04447719     0.00559118     0.01294959   
 -0.05812492     0.00905740     0.01596050   
  0.02299479     0.00991763    -0.01197879   
  0.02676843     0.00646630    -0.01166362   
  0.02863056     0.00343275    -0.01100252   
  0.02887212     0.00096328    -0.01001999   
  0.02757188    -0.00093830    -0.00875091   
  0.02479364    -0.00228296    -0.00721254   
  0.02059064    -0.00307691    -0.00541998   
  0.01500189    -0.00331472    -0.00338960   
  0.00805298    -0.00297677    -0.00114095   
 -0.00023582    -0.00203270     0.00130123   
 -0.00982474    -0.00045756     0.00390466   
 -0.02058660     0.00172368     0.00662704   
 -0.03214776     0.00433270     0.00941304   
 -0.04349862     0.00686537     0.01217482   
 -0.05292293     0.00857704     0.01472323   
  0.02641636     0.01203202    -0.01385855   
  0.02889931     0.00857918    -0.01314043   
  0.02949612     0.00555893    -0.01207658   
  0.02857310     0.00316787    -0.01074618   
  0.02624513     0.00138486    -0.00919156   
  0.02259798     0.00018526    -0.00743245   
  0.01770248    -0.00044923    -0.00548571   
  0.01162392    -0.00053248    -0.00336909   
  0.00443326    -0.00008068    -0.00110231   
 -0.00377119     0.00087376     0.00129187   
 -0.01282677     0.00225818     0.00378695   
 -0.02244611     0.00392396     0.00635144   
 -0.03214175     0.00561507     0.00894523   
 -0.04127172     0.00701923     0.01151440   
 -0.04956724     0.00801709     0.01398045   
  0.02945307     0.01418484    -0.01561960   
  0.03043987     0.01099776    -0.01454777   
  0.02972281     0.00815989    -0.01313993   
  0.02769085     0.00594521    -0.01152294   
  0.02446249     0.00431883    -0.00974230   
  0.02013267     0.00324124    -0.00781551   
  0.01478786     0.00267478    -0.00575677   
  0.00851940     0.00257761    -0.00358024   
  0.00143746     0.00289495    -0.00130104   
 -0.00631251     0.00354882     0.00106466   
 -0.01453172     0.00442844     0.00349909   
 -0.02296087     0.00539031     0.00598250   
 -0.03132255     0.00628746     0.00849382   
 -0.03946947     0.00704430     0.01101504   
 -0.04749980     0.00774144     0.01349919   
  0.03188934     0.01613331    -0.01710687   
  0.03140451     0.01338749    -0.01575974   
  0.02947781     0.01083210    -0.01408624   
  0.02649894     0.00882900    -0.01225141   
  0.02257050     0.00734109    -0.01030276   
  0.01778485     0.00631976    -0.00825421   
  0.01223341     0.00571360    -0.00611538   
  0.00601652     0.00546389    -0.00389565   
 -0.00074869     0.00550074    -0.00160460   
 -0.00792589     0.00574168     0.00074799   
 -0.01536438     0.00609633     0.00315237   
 -0.02292464     0.00648224     0.00559983   
 -0.03052961     0.00685261     0.00808478   
 -0.03820654     0.00722255     0.01060405   
 -0.04608142     0.00769883     0.01311155   
  0.03362326     0.01769745    -0.01822070   
  0.03187429     0.01546312    -0.01668856   
  0.02894932     0.01322477    -0.01483404   
  0.02523898     0.01143048    -0.01285042   
  0.02082019     0.01005168    -0.01078856   
  0.01577351     0.00904025    -0.00865975   
  0.01018059     0.00834373    -0.00646995   
  0.00412985     0.00790431    -0.00422449   
 -0.00228351     0.00765924    -0.00192855   
 -0.00896245     0.00754417     0.00041304   
 -0.01582213     0.00750119     0.00279664   
 -0.02281095     0.00749122     0.00522088   
 -0.02992976     0.00750591     0.00768743   
 -0.03723573     0.00757772     0.01019634   
 -0.04484669     0.00781061     0.01269591   
  0.03466176     0.01879066    -0.01892686   
  0.03194864     0.01705644    -0.01729479   
  0.02827293     0.01512916    -0.01533746   
  0.02403946     0.01353343    -0.01326789   
  0.01929805     0.01225703    -0.01114244   
  0.01411140     0.01126037    -0.00897193   
  0.00854280     0.01049988    -0.00676031   
  0.00265899     0.00992822    -0.00451071   
 -0.00347136     0.00949503    -0.00222585   
 -0.00978277     0.00915019     0.00009215   
 -0.01622444     0.00885078     0.00244271   
 -0.02277302     0.00856989     0.00482739   
 -0.02944289     0.00830446     0.00724991   
 -0.03629058     0.00808524     0.00971018   
 -0.04342719     0.00801185     0.01214936   
  0.03507799     0.01941204    -0.01924105   
  0.03169911     0.01812840    -0.01757806   
  0.02749242     0.01649560    -0.01558219   
  0.02289363     0.01510216    -0.01347902   
  0.01793135     0.01395558    -0.01133237   
  0.01264998     0.01302818    -0.00915465   
  0.00709303     0.01228791    -0.00695002   
  0.00131386     0.01169367    -0.00472161   
 -0.00462370     0.01119534    -0.00247255   
 -0.01065438     0.01073965    -0.00020498   
 -0.01672594     0.01028018     0.00208054   
 -0.02281217     0.00978669     0.00438589   
 -0.02892333     0.00925271     0.00671476   
 -0.03511238     0.00870604     0.00906543   
 -0.04148685     0.00824258     0.01137188   
  0.03495761     0.01961264    -0.01919983   
  0.03114542     0.01873092    -0.01755545   
  0.02655969     0.01738702    -0.01556894   
  0.02168962     0.01622149    -0.01347206   
  0.01654317     0.01526249    -0.01133627   
  0.01113997     0.01449725    -0.00917882   
  0.00552348     0.01389345    -0.00700750   
 -0.00022888     0.01339390    -0.00482899   
 -0.00601983     0.01292732    -0.00264948   
 -0.01175800     0.01242487    -0.00047349   
 -0.01737641     0.01183313     0.00169697   
 -0.02284491     0.01112172     0.00386285   
 -0.02817431     0.01028658     0.00602688   
 -0.03341690     0.00935566     0.00818460   
 -0.03867502     0.00841791     0.01026449   
  0.03435941     0.01944508    -0.01883375   
  0.03025241     0.01894271    -0.01723947   
  0.02537337     0.01790453    -0.01528936   
  0.02026179     0.01701201    -0.01321827   
  0.01485778     0.01634135    -0.01110999   
  0.00920308     0.01586801    -0.00899158   
  0.00342302     0.01550990    -0.00687860   
 -0.00232109     0.01516137    -0.00478419   
 -0.00788156     0.01472624    -0.00271926   
 -0.01315186     0.01413541    -0.00069148   
 -0.01807620     0.01335124     0.00129540   
 -0.02264432     0.01236300     0.00324126   
 -0.02688245     0.01117993     0.00514758   
 -0.03084270     0.00982971     0.00700685   
 -0.03460559     0.00838000     0.00874652   
  0.03330098     0.01895095    -0.01813722   
  0.02897948     0.01882079    -0.01658648   
  0.02383937     0.01808968    -0.01467081   
  0.01824624     0.01762179    -0.01262728   
  0.01226603     0.01741985    -0.01054943   
  0.00618265     0.01731472    -0.00847984   
  0.00028845     0.01714119    -0.00644945   
 -0.00519956     0.01678398    -0.00448201   
 -0.01015855     0.01618444    -0.00259329   
 -0.01454602     0.01532918    -0.00079162   
 -0.01837362     0.01423202     0.00092061   
 -0.02168158     0.01291739     0.00254473   
 -0.02451717     0.01140660     0.00408230   
 -0.02691726     0.00971191     0.00552407   
 -0.02890387     0.00785194     0.00680536   
  0.03179388     0.01795736    -0.01700559   
  0.02742528     0.01819093    -0.01548951   
  0.02113547     0.01822671    -0.01357209   
  0.01427449     0.01840358    -0.01148207   
  0.00754857     0.01847696    -0.00937381   
  0.00142706     0.01828402    -0.00734153   
 -0.00387340     0.01777157    -0.00543710   
 -0.00831078     0.01695559    -0.00368277   
 -0.01194296     0.01588755    -0.00208270   
 -0.01486954     0.01462790    -0.00063133   
 -0.01719389     0.01322926     0.00068078   
 -0.01899738     0.01172475     0.00186279   
 -0.02032227     0.01011992     0.00291940   
 -0.02115588     0.00838760     0.00384190   
 -0.02141667     0.00647309     0.00458364   
  0.03046206     0.01706545    -0.01510932   
  0.02255197     0.01818969    -0.01334103   
  0.01392101     0.01793144    -0.01107306   
  0.00659979     0.01729510    -0.00878248   
  0.00079022     0.01641634    -0.00671266   
 -0.00362380     0.01532917    -0.00493046   
 -0.00688731     0.01410111    -0.00342421   
 -0.00925880     0.01280277    -0.00215702   
 -0.01096084     0.01149095    -0.00108939   
 -0.01216460     0.01020423    -0.00018714   
 -0.01298494     0.00896056     0.00057586   
 -0.01348067     0.00775678     0.00121716   
 -0.01365112     0.00656580     0.00174456   
 -0.01342563     0.00533146     0.00215344   
 -0.01263802     0.00397308     0.00242406   
  0.01611738     0.00611277    -0.00771038   
  0.01955194     0.00756355    -0.00959903   
  0.02295301     0.00931362    -0.01143186   
  0.02617449     0.01141705    -0.01342045   
  0.02890953     0.01365175    -0.01533136   
  0.03097109     0.01575971    -0.01699427   
  0.03229253     0.01752988    -0.01828285   
  0.03291046     0.01884247    -0.01914359   
  0.03291459     0.01967204    -0.01958279   
  0.03239243     0.02006077    -0.01963968   
  0.03139251     0.02007038    -0.01935449   
  0.02990774     0.01974739    -0.01874323   
  0.02788901     0.01905544    -0.01775535   
  0.02488856     0.01790676    -0.01615518   
  0.01720960     0.01480921    -0.01243646   
  0.01164118     0.00681146    -0.00824551   
  0.00474016     0.00623563    -0.00575592   
  0.00066747     0.00574328    -0.00373945   
 -0.00168418     0.00520412    -0.00229221   
 -0.00299241     0.00464312    -0.00128338   
 -0.00368435     0.00409169    -0.00057277   
 -0.00402744     0.00357029    -0.00005664   
 -0.00418540     0.00309032     0.00033313   
 -0.00425258     0.00265522     0.00063844   
 -0.00427645     0.00226251     0.00088279   
 -0.00427068     0.00190479     0.00107648   
 -0.00422090     0.00156872     0.00121953   
 -0.00408389     0.00123408     0.00130362   
 -0.00377885     0.00086790     0.00131804   
 -0.00315475     0.00041978     0.00127406   
 -0.00329148     0.00081779     0.00146108   
 -0.01112939     0.00282983     0.00323594   
 -0.02161341     0.00478329     0.00583950   
 -0.03164718     0.00631963     0.00844378   
 -0.03980205     0.00736758     0.01065764   
 -0.04582525     0.00801944     0.01236030   
 -0.05001394     0.00839667     0.01358780   
 -0.05281832     0.00860056     0.01443935   
 -0.05467987     0.00871019     0.01502709   
 -0.05600749     0.00879483     0.01546233   
 -0.05721687     0.00892811     0.01586225   
 -0.05881106     0.00920582     0.01637131   
 -0.06155192     0.00975635     0.01724644   
 -0.06700734     0.01064764     0.01891227   
 -0.07994680     0.01194309     0.02362657   
 -0.06936249     0.00628619     0.01107552   
 -0.04346677     0.00192114     0.00779013   
 -0.02782170     0.00009016     0.00537719   
 -0.01593096    -0.00072682     0.00332995   
 -0.00625471    -0.00120344     0.00159932   
  0.00180103    -0.00152172     0.00013568   
  0.00848444    -0.00174164    -0.00109043   
  0.01389895    -0.00188250    -0.00209486   
  0.01807799    -0.00194689    -0.00288565   
  0.02101965    -0.00192853    -0.00346684   
  0.02270697    -0.00181534    -0.00384130   
  0.02312546    -0.00159068    -0.00401324   
  0.02227973    -0.00123375    -0.00399086   
  0.02020534    -0.00071670    -0.00378815   
  0.01690141     0.00005652    -0.00342635   
  0.01611738     0.00611277    -0.00771038   
  0.01955194     0.00756355    -0.00959903   
  0.02295301     0.00931362    -0.01143186   
  0.02617449     0.01141705    -0.01342045   
  0.02890953     0.01365175    -0.01533136   
  0.03097109     0.01575971    -0.01699427   
  0.03229253     0.01752988    -0.01828285   
  0.03291046     0.01884247    -0.01914359   
  0.03291459     0.01967204    -0.01958279   
  0.03239243     0.02006077    -0.01963968   
  0.03139251     0.02007038    -0.01935449   
  0.02990774     0.01974739    -0.01874323   
  0.02788901     0.01905544    -0.01775535   
  0.02488856     0.01790676    -0.01615518   
  0.01720960     0.01480921    -0.01243646   
  0.01164118     0.00681146    -0.00824551   
  0.00474016     0.00623563    -0.00575592   
  0.00066747     0.00574328    -0.00373945   
 -0.00168418     0.00520412    -0.00229221   
 -0.00299241     0.00464312    -0.00128338   
 -0.00368435     0.00409169    -0.00057277   
 -0.00402744     0.00357029    -0.00005664   
 -0.00418540     0.00309032     0.00033313   
 -0.00425258     0.00265522     0.00063844   
 -0.00427645     0.00226251     0.00088279   
 -0.00427068     0.00190479     0.00107648   
 -0.00422090     0.00156872     0.00121953   
 -0.00408389     0.00123408     0.00130362   
 -0.00377885     0.00086790     0.00131804   
 -0.00315475     0.00041978     0.00127406   
 -0.00329148     0.00081779     0.00146108   
 -0.01112939     0.00282983     0.00323594   
 -0.02161341     0.00478329     0.00583950   
 -0.03164718     0.00631963     0.00844378   
 -0.03980205     0.00736758     0.01065764   
 -0.04582525     0.00801944     0.01236030   
 -0.05001394     0.00839667     0.01358780   
 -0.05281832     0.00860056     0.01443935   
 -0.05467987     0.00871019     0.01502709   
 -0.05600749     0.00879483     0.01546233   
 -0.05721687     0.00892811     0.01586225   
 -0.05881106     0.00920582     0.01637131   
 -0.06155192     0.00975635     0.01724644   
 -0.06700734     0.01064764     0.01891227   
 -0.07994680     0.01194309     0.02362657   
 -0.06936249     0.00628619     0.01107552   
 -0.04346677     0.00192114     0.00779013   
 -0.02782170     0.00009016     0.00537719   
 -0.01593096    -0.00072682     0.00332995   
 -0.00625471    -0.00120344     0.00159932   
  0.00180103    -0.00152172     0.00013568   
  0.00848444    -0.00174164    -0.00109043   
  0.01389895    -0.00188250    -0.00209486   
  0.01807799    -0.00194689    -0.00288565   
  0.02101965    -0.00192853    -0.00346684   
  0.02270697    -0.00181534    -0.00384130   
  0.02312546    -0.00159068    -0.00401324   
  0.02227973    -0.00123375    -0.00399086   
  0.02020534    -0.00071670    -0.00378815   
  0.01690141     0.00005652    -0.00342635   
  0.01500866     0.00205518    -0.00553557   
  0.01706812     0.00611277    -0.00799833   
  0.02119315     0.00365091    -0.00839633   
  0.01856964     0.00076049    -0.00600044   
  0.02185675     0.00365091    -0.00861328   
  0.02484110     0.00149987    -0.00883390   
  0.02094282    -0.00023045    -0.00624757   
  0.02503080     0.00149987    -0.00895997   
  0.02702021    -0.00027243    -0.00895799   
  0.02213091    -0.00101309    -0.00622302   
  0.02671614    -0.00027243    -0.00896534   
  0.02767432    -0.00169364    -0.00871024   
  0.02208830    -0.00161787    -0.00590446   
  0.02688876    -0.00169364    -0.00858844   
  0.02679760    -0.00279623    -0.00806981   
  0.02080069    -0.00206761    -0.00527949   
  0.02554859    -0.00279623    -0.00781185   
  0.02440740    -0.00360769    -0.00702571   
  0.01827566    -0.00238053    -0.00434182   
  0.02271011    -0.00360769    -0.00662676   
  0.02052597    -0.00414900    -0.00557304   
  0.01452591    -0.00256874    -0.00308749   
  0.01838839    -0.00414900    -0.00502928   
  0.01516267    -0.00442903    -0.00370930   
  0.00955219    -0.00263521    -0.00151106   
  0.01258030    -0.00442903    -0.00301661   
  0.00829519    -0.00443625    -0.00143082   
  0.00332450    -0.00256759     0.00039838   
  0.00524351    -0.00443625    -0.00058366   
 -0.00015422    -0.00412496     0.00127016   
 -0.00424814    -0.00232298     0.00266208   
 -0.00373411    -0.00412496     0.00227993   
 -0.01035750    -0.00338628     0.00440761   
 -0.01337983    -0.00178278     0.00531700   
 -0.01458571    -0.00338628     0.00559162   
 -0.02264586    -0.00198270     0.00799963   
 -0.02457103    -0.00060090     0.00841302   
 -0.02775898    -0.00198270     0.00937149   
 -0.03758261     0.00059529     0.01205178   
 -0.03908319     0.00248109     0.01191858   
 -0.04402122     0.00059529     0.01362113   
 -0.05615018     0.00554553     0.01644334   
 -0.06125296     0.00973841     0.01639224   
 -0.06500016     0.00554553     0.01811246   
 -0.07271806     0.01194309     0.02127538   
  0.02052013     0.00386309    -0.00879842   
  0.02009540     0.00756355    -0.00965548   
  0.02415294     0.00454417    -0.00978878   
  0.02465679     0.00149606    -0.00911523   
  0.02420308     0.00454417    -0.00982869   
  0.02708497     0.00181026    -0.00980961   
  0.02730269    -0.00048422    -0.00909260   
  0.02665075     0.00181026    -0.00972469   
  0.02845293    -0.00049047    -0.00946415   
  0.02837064    -0.00207581    -0.00870116   
  0.02755836    -0.00049047    -0.00926027   
  0.02826140    -0.00233083    -0.00876609   
  0.02785155    -0.00330099    -0.00792948   
  0.02692618    -0.00233083    -0.00844556   
  0.02653943    -0.00371935    -0.00772036   
  0.02576727    -0.00418325    -0.00677167   
  0.02477530    -0.00371935    -0.00728440   
  0.02332506    -0.00467088    -0.00633062   
  0.02214763    -0.00473894    -0.00522625   
  0.02113338    -0.00467088    -0.00578092   
  0.01864840    -0.00519088    -0.00460231   
  0.01701171    -0.00496895    -0.00329359   
  0.01601777    -0.00519088    -0.00394098   
  0.01251934    -0.00526452    -0.00254255   
  0.01035032    -0.00484757    -0.00097393   
  0.00942231    -0.00526452    -0.00177204   
  0.00491801    -0.00484491    -0.00016075   
  0.00210405    -0.00430407     0.00173326   
  0.00130571    -0.00484491     0.00071562   
 -0.00421216    -0.00383720     0.00252879   
 -0.00787043    -0.00318797     0.00482745   
 -0.00841751    -0.00383720     0.00350564   
 -0.01495787    -0.00208028     0.00550064   
 -0.01985591    -0.00120564     0.00829814   
 -0.01986789    -0.00208028     0.00656730   
 -0.02737286     0.00065467     0.00870490   
 -0.03434375     0.00216802     0.01210382   
 -0.03311552     0.00065467     0.00983949   
 -0.04123698     0.00454272     0.01204682   
 -0.05207520     0.00740522     0.01612408   
 -0.04785771     0.00454272     0.01320696   
 -0.05465104     0.00874921     0.01534772   
 -0.06969770     0.01182148     0.02023735   
 -0.06115767     0.00874921     0.01644506   
 -0.06328684     0.01064764     0.01819139   
  0.02409984     0.00492011    -0.01023700   
  0.02265388     0.00931362    -0.01140497   
  0.02668837     0.00587331    -0.01131147   
  0.02752560     0.00208439    -0.01013252   
  0.02582888     0.00587331    -0.01120854   
  0.02856999     0.00287325    -0.01090198   
  0.02932095    -0.00028944    -0.00966108   
  0.02726938     0.00287325    -0.01067423   
  0.02887212     0.00040587    -0.01013775   
  0.02949760    -0.00217580    -0.00884739   
  0.02717083     0.00040587    -0.00980407   
  0.02766874    -0.00151606    -0.00906303   
  0.02809426    -0.00358079    -0.00770090   
  0.02558900    -0.00151606    -0.00862990   
  0.02502192    -0.00290105    -0.00769535   
  0.02515922    -0.00451419    -0.00622899   
  0.02257123    -0.00290105    -0.00716684   
  0.02098544    -0.00375548    -0.00604799   
  0.02073278    -0.00497464    -0.00444044   
  0.01815899    -0.00375548    -0.00542811   
  0.01560130    -0.00407352    -0.00413502   
  0.01483550    -0.00493923    -0.00234615   
  0.01238299    -0.00407352    -0.00342824   
  0.00889967    -0.00383125    -0.00197315   
  0.00745889    -0.00435330     0.00003939   
  0.00526309    -0.00383125    -0.00118513   
  0.00090640    -0.00298468     0.00041593   
 -0.00144131    -0.00312054     0.00269515   
 -0.00318227    -0.00298468     0.00127749   
 -0.00833427    -0.00147735     0.00300245   
 -0.01194113    -0.00110239     0.00558780   
 -0.01290724    -0.00147735     0.00392653   
 -0.01870192     0.00072661     0.00574437   
 -0.02409998     0.00183613     0.00866347   
 -0.02376140     0.00072661     0.00671476   
 -0.02986587     0.00354092     0.00858352   
 -0.03775816     0.00559118     0.01183971   
 -0.03531090     0.00354092     0.00957746   
 -0.04097633     0.00649959     0.01144059   
 -0.05152185     0.00905740     0.01494379   
 -0.04639345     0.00649959     0.01242197   
 -0.05058124     0.00860589     0.01415966   
 -0.06166306     0.01042942     0.01758698   
 -0.05515322     0.00860589     0.01502411   
 -0.05817484     0.00975635     0.01651617   
  0.02764125     0.00646630    -0.01181159   
  0.02493640     0.01141705    -0.01327153   
  0.02863687     0.00780267    -0.01291798   
  0.02995136     0.00343275    -0.01127179   
  0.02684549     0.00780267    -0.01266365   
  0.02928815     0.00475091    -0.01208158   
  0.03059983     0.00096328    -0.01039006   
  0.02715848     0.00475091    -0.01171491   
  0.02845375     0.00231765    -0.01093445   
  0.02968392    -0.00093830    -0.00921449   
  0.02601053     0.00231765    -0.01048100   
  0.02624513     0.00048476    -0.00953574   
  0.02728238    -0.00228296    -0.00776489   
  0.02350124     0.00048476    -0.00900370   
  0.02274667    -0.00076748    -0.00790804   
  0.02346094    -0.00307691    -0.00605648   
  0.01970279    -0.00076748    -0.00730274   
  0.01802985    -0.00145269    -0.00606847   
  0.01827015    -0.00331472    -0.00410514   
  0.01467896    -0.00145269    -0.00539508   
  0.01216134    -0.00157689    -0.00403466   
  0.01174602    -0.00297677    -0.00192932   
  0.00849295    -0.00157689    -0.00329892   
  0.00521361    -0.00114278    -0.00182654   
  0.00391626    -0.00203270     0.00044807   
  0.00121898    -0.00114278    -0.00103518   
 -0.00271674    -0.00016155     0.00053234   
 -0.00518078    -0.00045756     0.00299744   
 -0.00703475    -0.00016155     0.00137100   
 -0.01147610     0.00132248     0.00301361   
 -0.01544858     0.00172368     0.00568023   
 -0.01608528     0.00132248     0.00388921   
 -0.02080296     0.00318665     0.00558341   
 -0.02661821     0.00433270     0.00844669   
 -0.02560957     0.00318665     0.00648299   
 -0.03026570     0.00516707     0.00820118   
 -0.03799749     0.00686537     0.01122547   
 -0.03506747     0.00516707     0.00910739   
 -0.03930031     0.00685882     0.01081275   
 -0.04827998     0.00857704     0.01387517   
 -0.04378538     0.00685882     0.01169835   
 -0.04760947     0.00800161     0.01333582   
 -0.05663230     0.00958305     0.01621339   
 -0.05161815     0.00800161     0.01416217   
 -0.05537286     0.00920582     0.01564760   
  0.03071985     0.00857918    -0.01343693   
  0.02679246     0.01365175    -0.01507282   
  0.02989725     0.01014236    -0.01448324   
  0.03166043     0.00555893    -0.01247971   
  0.02725516     0.01014236    -0.01409418   
  0.02928210     0.00722491    -0.01326832   
  0.03105611     0.00316787    -0.01122983   
  0.02642074     0.00722491    -0.01278246   
  0.02737483     0.00494561    -0.01179496   
  0.02903369     0.00138486    -0.00974753   
  0.02429662     0.00494561    -0.01124347   
  0.02429340     0.00326597    -0.01013277   
  0.02569143     0.00018526    -0.00805540   
  0.02100101     0.00326597    -0.00952353   
  0.02013267     0.00215167    -0.00830349   
  0.02110789    -0.00044923    -0.00617052   
  0.01662362     0.00215167    -0.00764142   
  0.01497931     0.00157096    -0.00632284   
  0.01535204    -0.00053248    -0.00411017   
  0.01125144     0.00157096    -0.00561267   
  0.00892450     0.00149061    -0.00420649   
  0.00849294    -0.00008068    -0.00189334   
  0.00498043     0.00149061    -0.00345326   
  0.00207602     0.00186659    -0.00197108   
  0.00061713     0.00087376     0.00045843   
 -0.00206976     0.00186659    -0.00118044   
 -0.00542671     0.00263130     0.00036525   
 -0.00814261     0.00225818     0.00292019   
 -0.00973979     0.00263130     0.00118692   
 -0.01339844     0.00367796     0.00278279   
 -0.01756123     0.00392396     0.00546289   
 -0.01781260     0.00367796     0.00362813   
 -0.02160242     0.00484999     0.00525993   
 -0.02726179     0.00561507     0.00805083   
 -0.02601170     0.00484999     0.00612019   
 -0.02978747     0.00595987     0.00777253   
 -0.03671362     0.00701923     0.01063646   
 -0.03405860     0.00595987     0.00863748   
 -0.03780915     0.00687660     0.01029536   
 -0.04549335     0.00801709     0.01315154   
 -0.04185128     0.00687660     0.01115568   
 -0.04572674     0.00765279     0.01279257   
 -0.05372568     0.00909389     0.01547600   
 -0.04956368     0.00765279     0.01362696   
 -0.05370633     0.00892811     0.01513477   
  0.03312715     0.01099776    -0.01497314   
  0.02814368     0.01575971    -0.01664661   
  0.03050353     0.01256471    -0.01586472   
  0.03263319     0.00815989    -0.01365578   
  0.02717440     0.01256471    -0.01536816   
  0.02873338     0.00990276    -0.01434737   
  0.03082171     0.00594521    -0.01209862   
  0.02529481     0.00990276    -0.01376760   
  0.02592058     0.00783085    -0.01261774   
  0.02781125     0.00431883    -0.01037015   
  0.02235827     0.00783085    -0.01199101   
  0.02217109     0.00629946    -0.01075405   
  0.02370173     0.00324124    -0.00849102   
  0.01848216     0.00629946    -0.01008743   
  0.01757824     0.00526366    -0.00877496   
  0.01857961     0.00267478    -0.00647564   
  0.01376172     0.00526366    -0.00807214   
  0.01223341     0.00467518    -0.00669208   
  0.01253092     0.00257761    -0.00433801   
  0.00829420     0.00467518    -0.00595649   
  0.00623563     0.00447873    -0.00451629   
  0.00565421     0.00289495    -0.00209269   
  0.00218805     0.00447873    -0.00375144   
 -0.00030185     0.00460632    -0.00225865   
 -0.00192566     0.00354882     0.00024465   
 -0.00443069     0.00460632    -0.00146844   
 -0.00724923     0.00497296     0.00006944   
 -0.01004193     0.00442844     0.00265722   
 -0.01141682     0.00497296     0.00088095   
 -0.01446606     0.00547828     0.00245653   
 -0.01847618     0.00539031     0.00512636   
 -0.01861546     0.00547828     0.00328493   
 -0.02182329     0.00602044     0.00489133   
 -0.02697830     0.00628746     0.00763175   
 -0.02589291     0.00602044     0.00573236   
 -0.02924752     0.00652946     0.00736433   
 -0.03535821     0.00704430     0.01015367   
 -0.03319583     0.00652946     0.00821490   
 -0.03675655     0.00700531     0.00986915   
 -0.04359718     0.00774144     0.01266038   
 -0.04058392     0.00700531     0.01072748   
 -0.04445345     0.00755094     0.01238258   
 -0.05193812     0.00885125     0.01501457   
 -0.04821324     0.00755094     0.01322766   
 -0.05245858     0.00879483     0.01474453   
  0.03479377     0.01338749    -0.01628426   
  0.02897014     0.01752988    -0.01787348   
  0.03056397     0.01475957    -0.01695565   
  0.03297838     0.01083210    -0.01468841   
  0.02674776     0.01475957    -0.01638440   
  0.02785117     0.01240460    -0.01522522   
  0.03012553     0.00882900    -0.01289603   
  0.02401304     0.01240460    -0.01457936   
  0.02435054     0.01054579    -0.01331404   
  0.02632594     0.00734109    -0.01098305   
  0.02046889     0.01054579    -0.01263503   
  0.02014585     0.00913225    -0.01130924   
  0.02167031     0.00631976    -0.00896689   
  0.01621727     0.00913225    -0.01060366   
  0.01531869     0.00811725    -0.00922704   
  0.01624363     0.00571360    -0.00685759   
  0.01134543     0.00811725    -0.00849749   
  0.00995117     0.00744710    -0.00707500   
  0.01013714     0.00546389    -0.00466431   
  0.00594275     0.00744710    -0.00632351   
  0.00412985     0.00706215    -0.00485945   
  0.00345459     0.00550074    -0.00239642   
  0.00010418     0.00706215    -0.00408821   
 -0.00205361     0.00689592    -0.00258665   
 -0.00368302     0.00574168    -0.00006347   
 -0.00607061     0.00689592    -0.00179785   
 -0.00850741     0.00687764    -0.00026256   
 -0.01114017     0.00609633     0.00232495   
 -0.01248446     0.00687764     0.00054159   
 -0.01515145     0.00694027     0.00210757   
 -0.01878158     0.00648224     0.00475975   
 -0.01905875     0.00694027     0.00292531   
 -0.02193669     0.00703516     0.00452024   
 -0.02651012     0.00685261     0.00723400   
 -0.02575639     0.00703516     0.00535066   
 -0.02886086     0.00714772     0.00697475   
 -0.03431011     0.00722255     0.00974374   
 -0.03259678     0.00714772     0.00781828   
 -0.03597277     0.00730769     0.00947186   
 -0.04225372     0.00769883     0.01226484   
 -0.03965111     0.00730769     0.01032815   
 -0.04337191     0.00761973     0.01198770   
 -0.05057446     0.00873023     0.01462866   
 -0.04705391     0.00761973     0.01283291   
 -0.05115211     0.00871019     0.01433268   
  0.03576324     0.01546312    -0.01727905   
  0.02930366     0.01884247    -0.01869983   
  0.03020340     0.01651692    -0.01770212   
  0.03286067     0.01322477    -0.01549472   
  0.02609546     0.01651692    -0.01708794   
  0.02679147     0.01447039    -0.01584508   
  0.02919469     0.01143048    -0.01354137   
  0.02272294     0.01447039    -0.01515956   
  0.02281035     0.01281373    -0.01382281   
  0.02482372     0.01005168    -0.01150321   
  0.01876036     0.01281373    -0.01311255   
  0.01831903     0.01150170    -0.01173224   
  0.01982251     0.00904025    -0.00939582   
  0.01428643     0.01150170    -0.01100433   
  0.01338111     0.01049461    -0.00958956   
  0.01426548     0.00834373    -0.00722570   
  0.00937002     0.01049461    -0.00884596   
  0.00805985     0.00974546    -0.00739995   
  0.00823232     0.00790431    -0.00499811   
  0.00408026     0.00974546    -0.00664188   
  0.00242027     0.00920330    -0.00516691   
  0.00181013     0.00765924    -0.00271818   
 -0.00151201     0.00920330    -0.00439560   
 -0.00347136     0.00881426    -0.00289365   
 -0.00490961     0.00754417    -0.00039080   
 -0.00733798     0.00881426    -0.00211023   
 -0.00955303     0.00852518    -0.00058287   
 -0.01184030     0.00750119     0.00197991   
 -0.01333742     0.00852518     0.00021174   
 -0.01577593     0.00829080     0.00176379   
 -0.01891838     0.00749122     0.00439167   
 -0.01947002     0.00829080     0.00256933   
 -0.02211597     0.00808280     0.00414671   
 -0.02612256     0.00750591     0.00684493   
 -0.02572480     0.00808280     0.00496380   
 -0.02858228     0.00789809     0.00656859   
 -0.03348722     0.00757772     0.00934094   
 -0.03212713     0.00789809     0.00739876   
 -0.03522338     0.00776719     0.00903171   
 -0.04109451     0.00781061     0.01185369   
 -0.03873999     0.00776719     0.00987444   
 -0.04213328     0.00779182     0.01150862   
 -0.04917193     0.00864285     0.01418629   
 -0.04568664     0.00779182     0.01233688   
 -0.04939254     0.00860056     0.01378516   
  0.03613971     0.01705644    -0.01792046   
  0.02919464     0.01967204    -0.01912776   
  0.02950834     0.01775811    -0.01809780   
  0.03242372     0.01512916    -0.01603115   
  0.02527018     0.01775811    -0.01746726   
  0.02561042     0.01600157    -0.01618696   
  0.02817141     0.01353343    -0.01398478   
  0.02144943     0.01600157    -0.01548412   
  0.02130433     0.01454456    -0.01411349   
  0.02341226     0.01225703    -0.01187521   
  0.01720457     0.01454456    -0.01338985   
  0.01662692     0.01335061    -0.01198488   
  0.01820365     0.01126037    -0.00971869   
  0.01258969     0.01335061    -0.01124902   
  0.01162378     0.01239177    -0.00981991   
  0.01260285     0.01049988    -0.00751999   
  0.00765331     0.01239177    -0.00907378   
  0.00633848     0.01163253    -0.00762335   
  0.00667085     0.00992822    -0.00528218   
  0.00244564     0.01163253    -0.00686800   
  0.00082284     0.01103111    -0.00539807   
  0.00047351     0.00949503    -0.00300812   
 -0.00297763     0.01103111    -0.00463454   
 -0.00486243     0.01053916    -0.00314678   
 -0.00592180     0.00915019    -0.00070014   
 -0.00855622     0.01053916    -0.00237604   
 -0.01065438     0.01010596    -0.00087170   
 -0.01245566     0.00885078     0.00164048   
 -0.01423447     0.01010596    -0.00009430   
 -0.01650168     0.00968709     0.00142629   
 -0.01909116     0.00856989     0.00401448   
 -0.01997159     0.00968709     0.00221050   
 -0.02237571     0.00925346     0.00374835   
 -0.02582631     0.00830446     0.00642475   
 -0.02575230     0.00925346     0.00454039   
 -0.02828120     0.00879921     0.00609775   
 -0.03270288     0.00808524     0.00887340   
 -0.03159393     0.00879921     0.00689927   
 -0.03426177     0.00835097     0.00847630   
 -0.03980193     0.00801185     0.01133052   
 -0.03755217     0.00835097     0.00928624   
 -0.04040923     0.00800933     0.01085219   
 -0.04735287     0.00851958     0.01357596   
 -0.04374460     0.00800933     0.01164010   
 -0.04679593     0.00839667     0.01299358   
  0.03602849     0.01812840    -0.01821414   
  0.02867919     0.02006077    -0.01919009   
  0.02850088     0.01851192    -0.01816300   
  0.03174314     0.01649560    -0.01628786   
  0.02424744     0.01851192    -0.01753575   
  0.02426287     0.01703231    -0.01625320   
  0.02708163     0.01510216    -0.01420492   
  0.02010673     0.01703231    -0.01555025   
  0.01972141     0.01579337    -0.01417523   
  0.02205555     0.01395558    -0.01206941   
  0.01565087     0.01579337    -0.01345211   
  0.01489204     0.01476611    -0.01204631   
  0.01670590     0.01302818    -0.00990081   
  0.01090865     0.01476611    -0.01131381   
  0.00979814     0.01393735    -0.00989019   
  0.01106981     0.01228791    -0.00770411   
  0.00591350     0.01393735    -0.00915121   
  0.00448311     0.01327711    -0.00771425   
  0.00519614     0.01169367    -0.00548251   
  0.00071795     0.01327711    -0.00697078   
 -0.00097997     0.01273631    -0.00552393   
 -0.00085033     0.01119534    -0.00323909   
 -0.00460466     0.01273631    -0.00477782   
 -0.00649956     0.01225187    -0.00332441   
 -0.00699724     0.01073965    -0.00097656   
 -0.00997113     0.01225187    -0.00257738   
 -0.01198732     0.01175962    -0.00112004   
 -0.01318120     0.01028018     0.00130391   
 -0.01530618     0.01175962    -0.00037301   
 -0.01737641     0.01120679     0.00108698   
 -0.01936291     0.00978669     0.00360316   
 -0.02055677     0.01120679     0.00183390   
 -0.02263293     0.01056096     0.00329695   
 -0.02553923     0.00925271     0.00592438   
 -0.02570097     0.01056096     0.00404477   
 -0.02776103     0.00981548     0.00551268   
 -0.03175109     0.00870604     0.00826876   
 -0.03075311     0.00981548     0.00626282   
 -0.03280352     0.00899585     0.00773436   
 -0.03807969     0.00824258     0.01060175   
 -0.03576349     0.00899585     0.00848467   
 -0.03784771     0.00820045     0.00992554   
 -0.04475612     0.00829307     0.01268856   
 -0.04084116     0.00820045     0.01064292   
 -0.04295114     0.00801944     0.01184868   
  0.03549691     0.01873092    -0.01818401   
  0.02775764     0.02007038    -0.01892087   
  0.02713748     0.01885735    -0.01791968   
  0.03081147     0.01738702    -0.01627080   
  0.02294001     0.01885735    -0.01730870   
  0.02263567     0.01765961    -0.01604698   
  0.02585390     0.01622149    -0.01419417   
  0.01853645     0.01765961    -0.01535481   
  0.01787867     0.01667720    -0.01399377   
  0.02061822     0.01526249    -0.01206731   
  0.01386422     0.01667720    -0.01327941   
  0.01282974     0.01590180    -0.01188720   
  0.01511416     0.01449725    -0.00991527   
  0.00892528     0.01590180    -0.01116506   
  0.00753276     0.01532261    -0.00976054   
  0.00937528     0.01389345    -0.00774694   
  0.00378154     0.01532261    -0.00903640   
  0.00210249     0.01487999    -0.00762873   
  0.00347928     0.01339390    -0.00556908   
 -0.00145651     0.01487999    -0.00690671   
 -0.00331411     0.01448543    -0.00550335   
 -0.00246838     0.01292732    -0.00338820   
 -0.00665965     0.01448543    -0.00478708   
 -0.00857874     0.01404787    -0.00339448   
 -0.00836263     0.01242487    -0.00120962   
 -0.01171075     0.01404787    -0.00268668   
 -0.01358774     0.01349341    -0.00130966   
 -0.01412287     0.01183313     0.00096366   
 -0.01652399     0.01349341    -0.00061197   
 -0.01828183     0.01277459     0.00074681   
 -0.01970620     0.01112172     0.00313150   
 -0.02105245     0.01277459     0.00143406   
 -0.02264432     0.01187105     0.00277422   
 -0.02511338     0.01028658     0.00529622   
 -0.02528593     0.01187105     0.00345171   
 -0.02669304     0.01078627     0.00477422   
 -0.03038870     0.00935566     0.00745724   
 -0.02924502     0.01078627     0.00544296   
 -0.03047152     0.00954651     0.00674491   
 -0.03561263     0.00841791     0.00957542   
 -0.03297310     0.00954651     0.00740135   
 -0.03404843     0.00823784     0.00864618   
 -0.04100365     0.00788426     0.01141516   
 -0.03655144     0.00823784     0.00925623   
 -0.03743726     0.00736758     0.01025280   
  0.03455363     0.01894271    -0.01784937   
  0.02637989     0.01974739    -0.01832889   
  0.02533732     0.01886072    -0.01735998   
  0.02957401     0.01790453    -0.01597912   
  0.02120635     0.01886072    -0.01676814   
  0.02056448     0.01795260    -0.01553200   
  0.02437555     0.01701201    -0.01393063   
  0.01647833     0.01795260    -0.01485251   
  0.01538494     0.01733086    -0.01350829   
  0.01885884     0.01634135    -0.01182925   
  0.01141863     0.01733086    -0.01280441   
  0.00986551     0.01696379    -0.01142892   
  0.01304703     0.01586801    -0.00971113   
  0.00612189     0.01696379    -0.01072065   
  0.00424509     0.01674902    -0.00934236   
  0.00707008     0.01550990    -0.00759355   
  0.00079166     0.01674902    -0.00864000   
 -0.00122254     0.01654449    -0.00727649   
  0.00110721     0.01516137    -0.00549032   
 -0.00436479     0.01654449    -0.00658758   
 -0.00634052     0.01622562    -0.00525252   
 -0.00467206     0.01472624    -0.00341335   
 -0.00918735     0.01622562    -0.00458267   
 -0.01098893     0.01570950    -0.00328618   
 -0.01014303     0.01413541    -0.00137159   
 -0.01357891     0.01570950    -0.00263896   
 -0.01511835     0.01495672    -0.00138741   
 -0.01523704     0.01335124     0.00062979   
 -0.01749869     0.01495672    -0.00076452   
 -0.01872897     0.01396088     0.00043915   
 -0.01993736     0.01236300     0.00258955   
 -0.02094633     0.01396088     0.00103751   
 -0.02184946     0.01273459     0.00219301   
 -0.02426733     0.01117993     0.00450898   
 -0.02394340     0.01273459     0.00276759   
 -0.02451717     0.01129660     0.00387565   
 -0.02827929     0.00982971     0.00638534   
 -0.02651798     0.01129660     0.00442693   
 -0.02676279     0.00966520     0.00548332   
 -0.03204066     0.00838000     0.00817700   
 -0.02868956     0.00966520     0.00600654   
 -0.02860411     0.00788916     0.00697612   
 -0.03571588     0.00718963     0.00966793   
 -0.03047447     0.00788916     0.00743954   
 -0.02996176     0.00631963     0.00816605   
  0.03322084     0.01882079    -0.01718023   
  0.02444204     0.01905544    -0.01735112   
  0.02294518     0.01845633    -0.01639913   
  0.02803462     0.01808968    -0.01534815   
  0.01866056     0.01845633    -0.01581935   
  0.01722235     0.01805868    -0.01459046   
  0.02231854     0.01762179    -0.01332864   
  0.01313978     0.01805868    -0.01391405   
  0.01108549     0.01803449    -0.01256097   
  0.01610970     0.01741985    -0.01125455   
  0.00742549     0.01803449    -0.01185747   
  0.00506043     0.01809616    -0.01047645   
  0.00972837     0.01731472    -0.00917660   
  0.00188792     0.01809616    -0.00977826   
 -0.00046787     0.01803265    -0.00842124   
  0.00351459     0.01714119    -0.00712849   
 -0.00318624     0.01803265    -0.00774753   
 -0.00530146     0.01771753    -0.00644666   
 -0.00227665     0.01678398    -0.00513657   
 -0.00764275     0.01771753    -0.00580864   
 -0.00938353     0.01710603    -0.00458254   
 -0.00749935     0.01618444    -0.00321946   
 -0.01143556     0.01710603    -0.00398568   
 -0.01274546     0.01621002    -0.00284294   
 -0.01210207     0.01532918    -0.00138777   
 -0.01458726     0.01621002    -0.00228873   
 -0.01545993     0.01506989    -0.00123119   
 -0.01609706     0.01423202     0.00035437   
 -0.01715384     0.01506989    -0.00071879   
 -0.01760891     0.01373252     0.00025561   
 -0.01953168     0.01291739     0.00200744   
 -0.01919666     0.01373252     0.00072816   
 -0.01925921     0.01223489     0.00162300   
 -0.02246288     0.01140660     0.00357346   
 -0.02076199     0.01223489     0.00205763   
 -0.02044588     0.01059271     0.00287541   
 -0.02493904     0.00971191     0.00504862   
 -0.02186418     0.01059271     0.00327252   
 -0.02115588     0.00879326     0.00400909   
 -0.02698353     0.00785194     0.00639387   
 -0.02246856     0.00879326     0.00436339   
 -0.02131482     0.00681560     0.00499037   
 -0.02863655     0.00608684     0.00743994   
 -0.02248342     0.00681560     0.00527722   
 -0.02070887     0.00478329     0.00569527   
  0.03183426     0.01819093    -0.01606827   
  0.02071806     0.01790676    -0.01573165   
  0.01751088     0.01805672    -0.01470583   
  0.02533676     0.01822671    -0.01425357   
  0.01344866     0.01805672    -0.01408316   
  0.01034316     0.01811695    -0.01273132   
  0.01804072     0.01840358    -0.01219606   
  0.00721964     0.01811695    -0.01200375   
  0.00412208     0.01805930    -0.01054395   
  0.01081325     0.01847696    -0.01007768   
  0.00176224     0.01805930    -0.00981811   
 -0.00094304     0.01768294    -0.00841073   
  0.00422433     0.01828402    -0.00801029   
 -0.00275876     0.01768294    -0.00773820   
 -0.00488209     0.01696461    -0.00645593   
 -0.00146402     0.01777157    -0.00605834   
 -0.00634669     0.01696461    -0.00585487   
 -0.00784824     0.01596010    -0.00471935   
 -0.00619918     0.01695559    -0.00425245   
 -0.00910659     0.01596010    -0.00419114   
 -0.01002735     0.01475352    -0.00319912   
 -0.01004766     0.01588755    -0.00260144   
 -0.01117764     0.01475352    -0.00273793   
 -0.01159160     0.01342606    -0.00187627   
 -0.01312647     0.01462790    -0.00110204   
 -0.01269286     0.01342606    -0.00147430   
 -0.01268016     0.01204230    -0.00072754   
 -0.01555997     0.01322926     0.00025462   
 -0.01376038     0.01204230    -0.00037715   
 -0.01339057     0.01064299     0.00026879   
 -0.01745099     0.01172475     0.00147833   
 -0.01445264     0.01064299     0.00057365   
 -0.01377444     0.00924249     0.00112956   
 -0.01886280     0.01011992     0.00257593   
 -0.01480042     0.00924249     0.00139288   
 -0.01383265     0.00782495     0.00186462   
 -0.01980503     0.00838760     0.00354456   
 -0.01478377     0.00782495     0.00208720   
 -0.01350333     0.00634037     0.00247254   
 -0.02021416     0.00647309     0.00435388   
 -0.01431711     0.00634037     0.00264997   
 -0.01263802     0.00470721     0.00293266   
 -0.01993566     0.00449289     0.00490504   
 -0.01321923     0.00470721     0.00305164   
 -0.01091343     0.00282983     0.00319675   
  0.02674360     0.01818969    -0.01401867   
  0.01577525     0.01480921    -0.01190639   
  0.00847099     0.01326996    -0.01053506   
  0.01714384     0.01793144    -0.01185348   
  0.00720929     0.01326996    -0.00977587   
  0.00307238     0.01214786    -0.00818775   
  0.00903473     0.01729510    -0.00952694   
  0.00237951     0.01214786    -0.00742815   
 -0.00042276     0.01118869    -0.00599705   
  0.00266368     0.01641634    -0.00736816   
 -0.00089647     0.01118869    -0.00536591   
 -0.00266890     0.01013834    -0.00421910   
 -0.00211255     0.01532917    -0.00548936   
 -0.00311732     0.01013834    -0.00372719   
 -0.00407554     0.00904564    -0.00284449   
 -0.00558894     0.01410111    -0.00389599   
 -0.00459365     0.00904564    -0.00246623   
 -0.00492181     0.00797117    -0.00179054   
 -0.00807191     0.01280277    -0.00255533   
 -0.00554524     0.00797117    -0.00149696   
 -0.00539993     0.00695541    -0.00097446   
 -0.00982456     0.01149095    -0.00142702   
 -0.00613021     0.00695541    -0.00074242   
 -0.00563833     0.00602036    -0.00033205   
 -0.01105000     0.01020423    -0.00047452   
 -0.00645741     0.00602036    -0.00014506   
 -0.00571769     0.00517273     0.00018189   
 -0.01188907     0.00896056     0.00033126   
 -0.00659589     0.00517273     0.00033470   
 -0.00568253     0.00440777     0.00059680   
 -0.01242204     0.00775678     0.00101078   
 -0.00658223     0.00440777     0.00072183   
 -0.00554788     0.00371078     0.00092954   
 -0.01266973     0.00656580     0.00157536   
 -0.00642431     0.00371078     0.00102959   
 -0.00530143     0.00305609     0.00118640   
 -0.01258597     0.00533146     0.00202496   
 -0.00610078     0.00305609     0.00126090   
 -0.00490048     0.00240415     0.00136414   
 -0.01203830     0.00397308     0.00234497   
 -0.00555575     0.00240415     0.00140963   
 -0.00425773     0.00169082     0.00145383   
 -0.01071122     0.00250612     0.00251015   
 -0.00467754     0.00169082     0.00146718   
 -0.00322430     0.00081779     0.00146395   
  0.01500866     0.00205518    -0.00553557   
  0.01706812     0.00611277    -0.00799833   
  0.02119315     0.00365091    -0.00839633   
  0.01856964     0.00076049    -0.00600044   
  0.02185675     0.00365091    -0.00861328   
  0.02484110     0.00149987    -0.00883390   
  0.02094282    -0.00023045    -0.00624757   
  0.02503080     0.00149987    -0.00895997   
  0.02702021    -0.00027243    -0.00895799   
  0.02213091    -0.00101309    -0.00622302   
  0.02671614    -0.00027243    -0.00896534   
  0.02767432    -0.00169364    -0.00871024   
  0.02208830    -0.00161787    -0.00590446   
  0.02688876    -0.00169364    -0.00858844   
  0.02679760    -0.00279623    -0.00806981   
  0.02080069    -0.00206761    -0.00527949   
  0.02554859    -0.00279623    -0.00781185   
  0.02440740    -0.00360769    -0.00702571   
  0.01827566    -0.00238053    -0.00434182   
  0.02271011    -0.00360769    -0.00662676   
  0.02052597    -0.00414900    -0.00557304   
  0.01452591    -0.00256874    -0.00308749   
  0.01838839    -0.00414900    -0.00502928   
  0.01516267    -0.00442903    -0.00370930   
  0.00955219    -0.00263521    -0.00151106   
  0.01258030    -0.00442903    -0.00301661   
  0.00829519    -0.00443625    -0.00143082   
  0.00332450    -0.00256759     0.00039838   
  0.00524351    -0.00443625    -0.00058366   
 -0.00015422    -0.00412496     0.00127016   
 -0.00424814    -0.00232298     0.00266208   
 -0.00373411    -0.00412496     0.00227993   
 -0.01035750    -0.00338628     0.00440761   
 -0.01337983    -0.00178278     0.00531700   
 -0.01458571    -0.00338628     0.00559162   
 -0.02264586    -0.00198270     0.00799963   
 -0.02457103    -0.00060090     0.00841302   
 -0.02775898    -0.00198270     0.00937149   
 -0.03758261     0.00059529     0.01205178   
 -0.03908319     0.00248109     0.01191858   
 -0.04402122     0.00059529     0.01362113   
 -0.05615018     0.00554553     0.01644334   
 -0.06125296     0.00973841     0.01639224   
 -0.06500016     0.00554553     0.01811246   
 -0.07271806     0.01194309     0.02127538   
  0.02052013     0.00386309    -0.00879842   
  0.02009540     0.00756355    -0.00965548   
  0.02415294     0.00454417    -0.00978878   
  0.02465679     0.00149606    -0.00911523   
  0.02420308     0.00454417    -0.00982869   
  0.02708497     0.00181026    -0.00980961   
  0.02730269    -0.00048422    -0.00909260   
  0.02665075     0.00181026    -0.00972469   
  0.02845293    -0.00049047    -0.00946415   
  0.02837064    -0.00207581    -0.00870116   
  0.02755836    -0.00049047    -0.00926027   
  0.02826140    -0.00233083    -0.00876609   
  0.02785155    -0.00330099    -0.00792948   
  0.02692618    -0.00233083    -0.00844556   
  0.02653943    -0.00371935    -0.00772036   
  0.02576727    -0.00418325    -0.00677167   
  0.02477530    -0.00371935    -0.00728440   
  0.02332506    -0.00467088    -0.00633062   
  0.02214763    -0.00473894    -0.00522625   
  0.02113338    -0.00467088    -0.00578092   
  0.01864840    -0.00519088    -0.00460231   
  0.01701171    -0.00496895    -0.00329359   
  0.01601777    -0.00519088    -0.00394098   
  0.01251934    -0.00526452    -0.00254255   
  0.01035032    -0.00484757    -0.00097393   
  0.00942231    -0.00526452    -0.00177204   
  0.00491801    -0.00484491    -0.00016075   
  0.00210405    -0.00430407     0.00173326   
  0.00130571    -0.00484491     0.00071562   
 -0.00421216    -0.00383720     0.00252879   
 -0.00787043    -0.00318797     0.00482745   
 -0.00841751    -0.00383720     0.00350564   
 -0.01495787    -0.00208028     0.00550064   
 -0.01985591    -0.00120564     0.00829814   
 -0.01986789    -0.00208028     0.00656730   
 -0.02737286     0.00065467     0.00870490   
 -0.03434375     0.00216802     0.01210382   
 -0.03311552     0.00065467     0.00983949   
 -0.04123698     0.00454272     0.01204682   
 -0.05207520     0.00740522     0.01612408   
 -0.04785771     0.00454272     0.01320696   
 -0.05465104     0.00874921     0.01534772   
 -0.06969770     0.01182148     0.02023735   
 -0.06115767     0.00874921     0.01644506   
 -0.06328684     0.01064764     0.01819139   
  0.02409984     0.00492011    -0.01023700   
  0.02265388     0.00931362    -0.01140497   
  0.02668837     0.00587331    -0.01131147   
  0.02752560     0.00208439    -0.01013252   
  0.02582888     0.00587331    -0.01120854   
  0.02856999     0.00287325    -0.01090198   
  0.02932095    -0.00028944    -0.00966108   
  0.02726938     0.00287325    -0.01067423   
  0.02887212     0.00040587    -0.01013775   
  0.02949760    -0.00217580    -0.00884739   
  0.02717083     0.00040587    -0.00980407   
  0.02766874    -0.00151606    -0.00906303   
  0.02809426    -0.00358079    -0.00770090   
  0.02558900    -0.00151606    -0.00862990   
  0.02502192    -0.00290105    -0.00769535   
  0.02515922    -0.00451419    -0.00622899   
  0.02257123    -0.00290105    -0.00716684   
  0.02098544    -0.00375548    -0.00604799   
  0.02073278    -0.00497464    -0.00444044   
  0.01815899    -0.00375548    -0.00542811   
  0.01560130    -0.00407352    -0.00413502   
  0.01483550    -0.00493923    -0.00234615   
  0.01238299    -0.00407352    -0.00342824   
  0.00889967    -0.00383125    -0.00197315   
  0.00745889    -0.00435330     0.00003939   
  0.00526309    -0.00383125    -0.00118513   
  0.00090640    -0.00298468     0.00041593   
 -0.00144131    -0.00312054     0.00269515   
 -0.00318227    -0.00298468     0.00127749   
 -0.00833427    -0.00147735     0.00300245   
 -0.01194113    -0.00110239     0.00558780   
 -0.01290724    -0.00147735     0.00392653   
 -0.01870192     0.00072661     0.00574437   
 -0.02409998     0.00183613     0.00866347   
 -0.02376140     0.00072661     0.00671476   
 -0.02986587     0.00354092     0.00858352   
 -0.03775816     0.00559118     0.01183971   
 -0.03531090     0.00354092     0.00957746   
 -0.04097633     0.00649959     0.01144059   
 -0.05152185     0.00905740     0.01494379   
 -0.04639345     0.00649959     0.01242197   
 -0.05058124     0.00860589     0.01415966   
 -0.06166306     0.01042942     0.01758698   
 -0.05515322     0.00860589     0.01502411   
 -0.05817484     0.00975635     0.01651617   
  0.02764125     0.00646630    -0.01181159   
  0.02493640     0.01141705    -0.01327153   
  0.02863687     0.00780267    -0.01291798   
  0.02995136     0.00343275    -0.01127179   
  0.02684549     0.00780267    -0.01266365   
  0.02928815     0.00475091    -0.01208158   
  0.03059983     0.00096328    -0.01039006   
  0.02715848     0.00475091    -0.01171491   
  0.02845375     0.00231765    -0.01093445   
  0.02968392    -0.00093830    -0.00921449   
  0.02601053     0.00231765    -0.01048100   
  0.02624513     0.00048476    -0.00953574   
  0.02728238    -0.00228296    -0.00776489   
  0.02350124     0.00048476    -0.00900370   
  0.02274667    -0.00076748    -0.00790804   
  0.02346094    -0.00307691    -0.00605648   
  0.01970279    -0.00076748    -0.00730274   
  0.01802985    -0.00145269    -0.00606847   
  0.01827015    -0.00331472    -0.00410514   
  0.01467896    -0.00145269    -0.00539508   
  0.01216134    -0.00157689    -0.00403466   
  0.01174602    -0.00297677    -0.00192932   
  0.00849295    -0.00157689    -0.00329892   
  0.00521361    -0.00114278    -0.00182654   
  0.00391626    -0.00203270     0.00044807   
  0.00121898    -0.00114278    -0.00103518   
 -0.00271674    -0.00016155     0.00053234   
 -0.00518078    -0.00045756     0.00299744   
 -0.00703475    -0.00016155     0.00137100   
 -0.01147610     0.00132248     0.00301361   
 -0.01544858     0.00172368     0.00568023   
 -0.01608528     0.00132248     0.00388921   
 -0.02080296     0.00318665     0.00558341   
 -0.02661821     0.00433270     0.00844669   
 -0.02560957     0.00318665     0.00648299   
 -0.03026570     0.00516707     0.00820118   
 -0.03799749     0.00686537     0.01122547   
 -0.03506747     0.00516707     0.00910739   
 -0.03930031     0.00685882     0.01081275   
 -0.04827998     0.00857704     0.01387517   
 -0.04378538     0.00685882     0.01169835   
 -0.04760947     0.00800161     0.01333582   
 -0.05663230     0.00958305     0.01621339   
 -0.05161815     0.00800161     0.01416217   
 -0.05537286     0.00920582     0.01564760   
  0.03071985     0.00857918    -0.01343693   
  0.02679246     0.01365175    -0.01507282   
  0.02989725     0.01014236    -0.01448324   
  0.03166043     0.00555893    -0.01247971   
  0.02725516     0.01014236    -0.01409418   
  0.02928210     0.00722491    -0.01326832   
  0.03105611     0.00316787    -0.01122983   
  0.02642074     0.00722491    -0.01278246   
  0.02737483     0.00494561    -0.01179496   
  0.02903369     0.00138486    -0.00974753   
  0.02429662     0.00494561    -0.01124347   
  0.02429340     0.00326597    -0.01013277   
  0.02569143     0.00018526    -0.00805540   
  0.02100101     0.00326597    -0.00952353   
  0.02013267     0.00215167    -0.00830349   
  0.02110789    -0.00044923    -0.00617052   
  0.01662362     0.00215167    -0.00764142   
  0.01497931     0.00157096    -0.00632284   
  0.01535204    -0.00053248    -0.00411017   
  0.01125144     0.00157096    -0.00561267   
  0.00892450     0.00149061    -0.00420649   
  0.00849294    -0.00008068    -0.00189334   
  0.00498043     0.00149061    -0.00345326   
  0.00207602     0.00186659    -0.00197108   
  0.00061713     0.00087376     0.00045843   
 -0.00206976     0.00186659    -0.00118044   
 -0.00542671     0.00263130     0.00036525   
 -0.00814261     0.00225818     0.00292019   
 -0.00973979     0.00263130     0.00118692   
 -0.01339844     0.00367796     0.00278279   
 -0.01756123     0.00392396     0.00546289   
 -0.01781260     0.00367796     0.00362813   
 -0.02160242     0.00484999     0.00525993   
 -0.02726179     0.00561507     0.00805083   
 -0.02601170     0.00484999     0.00612019   
 -0.02978747     0.00595987     0.00777253   
 -0.03671362     0.00701923     0.01063646   
 -0.03405860     0.00595987     0.00863748   
 -0.03780915     0.00687660     0.01029536   
 -0.04549335     0.00801709     0.01315154   
 -0.04185128     0.00687660     0.01115568   
 -0.04572674     0.00765279     0.01279257   
 -0.05372568     0.00909389     0.01547600   
 -0.04956368     0.00765279     0.01362696   
 -0.05370633     0.00892811     0.01513477   
  0.03312715     0.01099776    -0.01497314   
  0.02814368     0.01575971    -0.01664661   
  0.03050353     0.01256471    -0.01586472   
  0.03263319     0.00815989    -0.01365578   
  0.02717440     0.01256471    -0.01536816   
  0.02873338     0.00990276    -0.01434737   
  0.03082171     0.00594521    -0.01209862   
  0.02529481     0.00990276    -0.01376760   
  0.02592058     0.00783085    -0.01261774   
  0.02781125     0.00431883    -0.01037015   
  0.02235827     0.00783085    -0.01199101   
  0.02217109     0.00629946    -0.01075405   
  0.02370173     0.00324124    -0.00849102   
  0.01848216     0.00629946    -0.01008743   
  0.01757824     0.00526366    -0.00877496   
  0.01857961     0.00267478    -0.00647564   
  0.01376172     0.00526366    -0.00807214   
  0.01223341     0.00467518    -0.00669208   
  0.01253092     0.00257761    -0.00433801   
  0.00829420     0.00467518    -0.00595649   
  0.00623563     0.00447873    -0.00451629   
  0.00565421     0.00289495    -0.00209269   
  0.00218805     0.00447873    -0.00375144   
 -0.00030185     0.00460632    -0.00225865   
 -0.00192566     0.00354882     0.00024465   
 -0.00443069     0.00460632    -0.00146844   
 -0.00724923     0.00497296     0.00006944   
 -0.01004193     0.00442844     0.00265722   
 -0.01141682     0.00497296     0.00088095   
 -0.01446606     0.00547828     0.00245653   
 -0.01847618     0.00539031     0.00512636   
 -0.01861546     0.00547828     0.00328493   
 -0.02182329     0.00602044     0.00489133   
 -0.02697830     0.00628746     0.00763175   
 -0.02589291     0.00602044     0.00573236   
 -0.02924752     0.00652946     0.00736433   
 -0.03535821     0.00704430     0.01015367   
 -0.03319583     0.00652946     0.00821490   
 -0.03675655     0.00700531     0.00986915   
 -0.04359718     0.00774144     0.01266038   
 -0.04058392     0.00700531     0.01072748   
 -0.04445345     0.00755094     0.01238258   
 -0.05193812     0.00885125     0.01501457   
 -0.04821324     0.00755094     0.01322766   
 -0.05245858     0.00879483     0.01474453   
  0.03479377     0.01338749    -0.01628426   
  0.02897014     0.01752988    -0.01787348   
  0.03056397     0.01475957    -0.01695565   
  0.03297838     0.01083210    -0.01468841   
  0.02674776     0.01475957    -0.01638440   
  0.02785117     0.01240460    -0.01522522   
  0.03012553     0.00882900    -0.01289603   
  0.02401304     0.01240460    -0.01457936   
  0.02435054     0.01054579    -0.01331404   
  0.02632594     0.00734109    -0.01098305   
  0.02046889     0.01054579    -0.01263503   
  0.02014585     0.00913225    -0.01130924   
  0.02167031     0.00631976    -0.00896689   
  0.01621727     0.00913225    -0.01060366   
  0.01531869     0.00811725    -0.00922704   
  0.01624363     0.00571360    -0.00685759   
  0.01134543     0.00811725    -0.00849749   
  0.00995117     0.00744710    -0.00707500   
  0.01013714     0.00546389    -0.00466431   
  0.00594275     0.00744710    -0.00632351   
  0.00412985     0.00706215    -0.00485945   
  0.00345459     0.00550074    -0.00239642   
  0.00010418     0.00706215    -0.00408821   
 -0.00205361     0.00689592    -0.00258665   
 -0.00368302     0.00574168    -0.00006347   
 -0.00607061     0.00689592    -0.00179785   
 -0.00850741     0.00687764    -0.00026256   
 -0.01114017     0.00609633     0.00232495   
 -0.01248446     0.00687764     0.00054159   
 -0.01515145     0.00694027     0.00210757   
 -0.01878158     0.00648224     0.00475975   
 -0.01905875     0.00694027     0.00292531   
 -0.02193669     0.00703516     0.00452024   
 -0.02651012     0.00685261     0.00723400   
 -0.02575639     0.00703516     0.00535066   
 -0.02886086     0.00714772     0.00697475   
 -0.03431011     0.00722255     0.00974374   
 -0.03259678     0.00714772     0.00781828   
 -0.03597277     0.00730769     0.00947186   
 -0.04225372     0.00769883     0.01226484   
 -0.03965111     0.00730769     0.01032815   
 -0.04337191     0.00761973     0.01198770   
 -0.05057446     0.00873023     0.01462866   
 -0.04705391     0.00761973     0.01283291   
 -0.05115211     0.00871019     0.01433268   
  0.03576324     0.01546312    -0.01727905   
  0.02930366     0.01884247    -0.01869983   
  0.03020340     0.01651692    -0.01770212   
  0.03286067     0.01322477    -0.01549472   
  0.02609546     0.01651692    -0.01708794   
  0.02679147     0.01447039    -0.01584508   
  0.02919469     0.01143048    -0.01354137   
  0.02272294     0.01447039    -0.01515956   
  0.02281035     0.01281373    -0.01382281   
  0.02482372     0.01005168    -0.01150321   
  0.01876036     0.01281373    -0.01311255   
  0.01831903     0.01150170    -0.01173224   
  0.01982251     0.00904025    -0.00939582   
  0.01428643     0.01150170    -0.01100433   
  0.01338111     0.01049461    -0.00958956   
  0.01426548     0.00834373    -0.00722570   
  0.00937002     0.01049461    -0.00884596   
  0.00805985     0.00974546    -0.00739995   
  0.00823232     0.00790431    -0.00499811   
  0.00408026     0.00974546    -0.00664188   
  0.00242027     0.00920330    -0.00516691   
  0.00181013     0.00765924    -0.00271818   
 -0.00151201     0.00920330    -0.00439560   
 -0.00347136     0.00881426    -0.00289365   
 -0.00490961     0.00754417    -0.00039080   
 -0.00733798     0.00881426    -0.00211023   
 -0.00955303     0.00852518    -0.00058287   
 -0.01184030     0.00750119     0.00197991   
 -0.01333742     0.00852518     0.00021174   
 -0.01577593     0.00829080     0.00176379   
 -0.01891838     0.00749122     0.00439167   
 -0.01947002     0.00829080     0.00256933   
 -0.02211597     0.00808280     0.00414671   
 -0.02612256     0.00750591     0.00684493   
 -0.02572480     0.00808280     0.00496380   
 -0.02858228     0.00789809     0.00656859   
 -0.03348722     0.00757772     0.00934094   
 -0.03212713     0.00789809     0.00739876   
 -0.03522338     0.00776719     0.00903171   
 -0.04109451     0.00781061     0.01185369   
 -0.03873999     0.00776719     0.00987444   
 -0.04213328     0.00779182     0.01150862   
 -0.04917193     0.00864285     0.01418629   
 -0.04568664     0.00779182     0.01233688   
 -0.04939254     0.00860056     0.01378516   
  0.03613971     0.01705644    -0.01792046   
  0.02919464     0.01967204    -0.01912776   
  0.02950834     0.01775811    -0.01809780   
  0.03242372     0.01512916    -0.01603115   
  0.02527018     0.01775811    -0.01746726   
  0.02561042     0.01600157    -0.01618696   
  0.02817141     0.01353343    -0.01398478   
  0.02144943     0.01600157    -0.01548412   
  0.02130433     0.01454456    -0.01411349   
  0.02341226     0.01225703    -0.01187521   
  0.01720457     0.01454456    -0.01338985   
  0.01662692     0.01335061    -0.01198488   
  0.01820365     0.01126037    -0.00971869   
  0.01258969     0.01335061    -0.01124902   
  0.01162378     0.01239177    -0.00981991   
  0.01260285     0.01049988    -0.00751999   
  0.00765331     0.01239177    -0.00907378   
  0.00633848     0.01163253    -0.00762335   
  0.00667085     0.00992822    -0.00528218   
  0.00244564     0.01163253    -0.00686800   
  0.00082284     0.01103111    -0.00539807   
  0.00047351     0.00949503    -0.00300812   
 -0.00297763     0.01103111    -0.00463454   
 -0.00486243     0.01053916    -0.00314678   
 -0.00592180     0.00915019    -0.00070014   
 -0.00855622     0.01053916    -0.00237604   
 -0.01065438     0.01010596    -0.00087170   
 -0.01245566     0.00885078     0.00164048   
 -0.01423447     0.01010596    -0.00009430   
 -0.01650168     0.00968709     0.00142629   
 -0.01909116     0.00856989     0.00401448   
 -0.01997159     0.00968709     0.00221050   
 -0.02237571     0.00925346     0.00374835   
 -0.02582631     0.00830446     0.00642475   
 -0.02575230     0.00925346     0.00454039   
 -0.02828120     0.00879921     0.00609775   
 -0.03270288     0.00808524     0.00887340   
 -0.03159393     0.00879921     0.00689927   
 -0.03426177     0.00835097     0.00847630   
 -0.03980193     0.00801185     0.01133052   
 -0.03755217     0.00835097     0.00928624   
 -0.04040923     0.00800933     0.01085219   
 -0.04735287     0.00851958     0.01357596   
 -0.04374460     0.00800933     0.01164010   
 -0.04679593     0.00839667     0.01299358   
  0.03602849     0.01812840    -0.01821414   
  0.02867919     0.02006077    -0.01919009   
  0.02850088     0.01851192    -0.01816300   
  0.03174314     0.01649560    -0.01628786   
  0.02424744     0.01851192    -0.01753575   
  0.02426287     0.01703231    -0.01625320   
  0.02708163     0.01510216    -0.01420492   
  0.02010673     0.01703231    -0.01555025   
  0.01972141     0.01579337    -0.01417523   
  0.02205555     0.01395558    -0.01206941   
  0.01565087     0.01579337    -0.01345211   
  0.01489204     0.01476611    -0.01204631   
  0.01670590     0.01302818    -0.00990081   
  0.01090865     0.01476611    -0.01131381   
  0.00979814     0.01393735    -0.00989019   
  0.01106981     0.01228791    -0.00770411   
  0.00591350     0.01393735    -0.00915121   
  0.00448311     0.01327711    -0.00771425   
  0.00519614     0.01169367    -0.00548251   
  0.00071795     0.01327711    -0.00697078   
 -0.00097997     0.01273631    -0.00552393   
 -0.00085033     0.01119534    -0.00323909   
 -0.00460466     0.01273631    -0.00477782   
 -0.00649956     0.01225187    -0.00332441   
 -0.00699724     0.01073965    -0.00097656   
 -0.00997113     0.01225187    -0.00257738   
 -0.01198732     0.01175962    -0.00112004   
 -0.01318120     0.01028018     0.00130391   
 -0.01530618     0.01175962    -0.00037301   
 -0.01737641     0.01120679     0.00108698   
 -0.01936291     0.00978669     0.00360316   
 -0.02055677     0.01120679     0.00183390   
 -0.02263293     0.01056096     0.00329695   
 -0.02553923     0.00925271     0.00592438   
 -0.02570097     0.01056096     0.00404477   
 -0.02776103     0.00981548     0.00551268   
 -0.03175109     0.00870604     0.00826876   
 -0.03075311     0.00981548     0.00626282   
 -0.03280352     0.00899585     0.00773436   
 -0.03807969     0.00824258     0.01060175   
 -0.03576349     0.00899585     0.00848467   
 -0.03784771     0.00820045     0.00992554   
 -0.04475612     0.00829307     0.01268856   
 -0.04084116     0.00820045     0.01064292   
 -0.04295114     0.00801944     0.01184868   
  0.03549691     0.01873092    -0.01818401   
  0.02775764     0.02007038    -0.01892087   
  0.02713748     0.01885735    -0.01791968   
  0.03081147     0.01738702    -0.01627080   
  0.02294001     0.01885735    -0.01730870   
  0.02263567     0.01765961    -0.01604698   
  0.02585390     0.01622149    -0.01419417   
  0.01853645     0.01765961    -0.01535481   
  0.01787867     0.01667720    -0.01399377   
  0.02061822     0.01526249    -0.01206731   
  0.01386422     0.01667720    -0.01327941   
  0.01282974     0.01590180    -0.01188720   
  0.01511416     0.01449725    -0.00991527   
  0.00892528     0.01590180    -0.01116506   
  0.00753276     0.01532261    -0.00976054   
  0.00937528     0.01389345    -0.00774694   
  0.00378154     0.01532261    -0.00903640   
  0.00210249     0.01487999    -0.00762873   
  0.00347928     0.01339390    -0.00556908   
 -0.00145651     0.01487999    -0.00690671   
 -0.00331411     0.01448543    -0.00550335   
 -0.00246838     0.01292732    -0.00338820   
 -0.00665965     0.01448543    -0.00478708   
 -0.00857874     0.01404787    -0.00339448   
 -0.00836263     0.01242487    -0.00120962   
 -0.01171075     0.01404787    -0.00268668   
 -0.01358774     0.01349341    -0.00130966   
 -0.01412287     0.01183313     0.00096366   
 -0.01652399     0.01349341    -0.00061197   
 -0.01828183     0.01277459     0.00074681   
 -0.01970620     0.01112172     0.00313150   
 -0.02105245     0.01277459     0.00143406   
 -0.02264432     0.01187105     0.00277422   
 -0.02511338     0.01028658     0.00529622   
 -0.02528593     0.01187105     0.00345171   
 -0.02669304     0.01078627     0.00477422   
 -0.03038870     0.00935566     0.00745724   
 -0.02924502     0.01078627     0.00544296   
 -0.03047152     0.00954651     0.00674491   
 -0.03561263     0.00841791     0.00957542   
 -0.03297310     0.00954651     0.00740135   
 -0.03404843     0.00823784     0.00864618   
 -0.04100365     0.00788426     0.01141516   
 -0.03655144     0.00823784     0.00925623   
 -0.03743726     0.00736758     0.01025280   
  0.03455363     0.01894271    -0.01784937   
  0.02637989     0.01974739    -0.01832889   
  0.02533732     0.01886072    -0.01735998   
  0.02957401     0.01790453    -0.01597912   
  0.02120635     0.01886072    -0.01676814   
  0.02056448     0.01795260    -0.01553200   
  0.02437555     0.01701201    -0.01393063   
  0.01647833     0.01795260    -0.01485251   
  0.01538494     0.01733086    -0.01350829   
  0.01885884     0.01634135    -0.01182925   
  0.01141863     0.01733086    -0.01280441   
  0.00986551     0.01696379    -0.01142892   
  0.01304703     0.01586801    -0.00971113   
  0.00612189     0.01696379    -0.01072065   
  0.00424509     0.01674902    -0.00934236   
  0.00707008     0.01550990    -0.00759355   
  0.00079166     0.01674902    -0.00864000   
 -0.00122254     0.01654449    -0.00727649   
  0.00110721     0.01516137    -0.00549032   
 -0.00436479     0.01654449    -0.00658758   
 -0.00634052     0.01622562    -0.00525252   
 -0.00467206     0.01472624    -0.00341335   
 -0.00918735     0.01622562    -0.00458267   
 -0.01098893     0.01570950    -0.00328618   
 -0.01014303     0.01413541    -0.00137159   
 -0.01357891     0.01570950    -0.00263896   
 -0.01511835     0.01495672    -0.00138741   
 -0.01523704     0.01335124     0.00062979   
 -0.01749869     0.01495672    -0.00076452   
 -0.01872897     0.01396088     0.00043915   
 -0.01993736     0.01236300     0.00258955   
 -0.02094633     0.01396088     0.00103751   
 -0.02184946     0.01273459     0.00219301   
 -0.02426733     0.01117993     0.00450898   
 -0.02394340     0.01273459     0.00276759   
 -0.02451717     0.01129660     0.00387565   
 -0.02827929     0.00982971     0.00638534   
 -0.02651798     0.01129660     0.00442693   
 -0.02676279     0.00966520     0.00548332   
 -0.03204066     0.00838000     0.00817700   
 -0.02868956     0.00966520     0.00600654   
 -0.02860411     0.00788916     0.00697612   
 -0.03571588     0.00718963     0.00966793   
 -0.03047447     0.00788916     0.00743954   
 -0.02996176     0.00631963     0.00816605   
  0.03322084     0.01882079    -0.01718023   
  0.02444204     0.01905544    -0.01735112   
  0.02294518     0.01845633    -0.01639913   
  0.02803462     0.01808968    -0.01534815   
  0.01866056     0.01845633    -0.01581935   
  0.01722235     0.01805868    -0.01459046   
  0.02231854     0.01762179    -0.01332864   
  0.01313978     0.01805868    -0.01391405   
  0.01108549     0.01803449    -0.01256097   
  0.01610970     0.01741985    -0.01125455   
  0.00742549     0.01803449    -0.01185747   
  0.00506043     0.01809616    -0.01047645   
  0.00972837     0.01731472    -0.00917660   
  0.00188792     0.01809616    -0.00977826   
 -0.00046787     0.01803265    -0.00842124   
  0.00351459     0.01714119    -0.00712849   
 -0.00318624     0.01803265    -0.00774753   
 -0.00530146     0.01771753    -0.00644666   
 -0.00227665     0.01678398    -0.00513657   
 -0.00764275     0.01771753    -0.00580864   
 -0.00938353     0.01710603    -0.00458254   
 -0.00749935     0.01618444    -0.00321946   
 -0.01143556     0.01710603    -0.00398568   
 -0.01274546     0.01621002    -0.00284294   
 -0.01210207     0.01532918    -0.00138777   
 -0.01458726     0.01621002    -0.00228873   
 -0.01545993     0.01506989    -0.00123119   
 -0.01609706     0.01423202     0.00035437   
 -0.01715384     0.01506989    -0.00071879   
 -0.01760891     0.01373252     0.00025561   
 -0.01953168     0.01291739     0.00200744   
 -0.01919666     0.01373252     0.00072816   
 -0.01925921     0.01223489     0.00162300   
 -0.02246288     0.01140660     0.00357346   
 -0.02076199     0.01223489     0.00205763   
 -0.02044588     0.01059271     0.00287541   
 -0.02493904     0.00971191     0.00504862   
 -0.02186418     0.01059271     0.00327252   
 -0.02115588     0.00879326     0.00400909   
 -0.02698353     0.00785194     0.00639387   
 -0.02246856     0.00879326     0.00436339   
 -0.02131482     0.00681560     0.00499037   
 -0.02863655     0.00608684     0.00743994   
 -0.02248342     0.00681560     0.00527722   
 -0.02070887     0.00478329     0.00569527   
  0.03183426     0.01819093    -0.01606827   
  0.02071806     0.01790676    -0.01573165   
  0.01751088     0.01805672    -0.01470583   
  0.02533676     0.01822671    -0.01425357   
  0.01344866     0.01805672    -0.01408316   
  0.01034316     0.01811695    -0.01273132   
  0.01804072     0.01840358    -0.01219606   
  0.00721964     0.01811695    -0.01200375   
  0.00412208     0.01805930    -0.01054395   
  0.01081325     0.01847696    -0.01007768   
  0.00176224     0.01805930    -0.00981811   
 -0.00094304     0.01768294    -0.00841073   
  0.00422433     0.01828402    -0.00801029   
 -0.00275876     0.01768294    -0.00773820   
 -0.00488209     0.01696461    -0.00645593   
 -0.00146402     0.01777157    -0.00605834   
 -0.00634669     0.01696461    -0.00585487   
 -0.00784824     0.01596010    -0.00471935   
 -0.00619918     0.01695559    -0.00425245   
 -0.00910659     0.01596010    -0.00419114   
 -0.01002735     0.01475352    -0.00319912   
 -0.01004766     0.01588755    -0.00260144   
 -0.01117764     0.01475352    -0.00273793   
 -0.01159160     0.01342606    -0.00187627   
 -0.01312647     0.01462790    -0.00110204   
 -0.01269286     0.01342606    -0.00147430   
 -0.01268016     0.01204230    -0.00072754   
 -0.01555997     0.01322926     0.00025462   
 -0.01376038     0.01204230    -0.00037715   
 -0.01339057     0.01064299     0.00026879   
 -0.01745099     0.01172475     0.00147833   
 -0.01445264     0.01064299     0.00057365   
 -0.01377444     0.00924249     0.00112956   
 -0.01886280     0.01011992     0.00257593   
 -0.01480042     0.00924249     0.00139288   
 -0.01383265     0.00782495     0.00186462   
 -0.01980503     0.00838760     0.00354456   
 -0.01478377     0.00782495     0.00208720   
 -0.01350333     0.00634037     0.00247254   
 -0.02021416     0.00647309     0.00435388   
 -0.01431711     0.00634037     0.00264997   
 -0.01263802     0.00470721     0.00293266   
 -0.01993566     0.00449289     0.00490504   
 -0.01321923     0.00470721     0.00305164   
 -0.01091343     0.00282983     0.00319675   
  0.02674360     0.01818969    -0.01401867   
  0.01577525     0.01480921    -0.01190639   
  0.00847099     0.01326996    -0.01053506   
  0.01714384     0.01793144    -0.01185348   
  0.00720929     0.01326996    -0.00977587   
  0.00307238     0.01214786    -0.00818775   
  0.00903473     0.01729510    -0.00952694   
  0.00237951     0.01214786    -0.00742815   
 -0.00042276     0.01118869    -0.00599705   
  0.00266368     0.01641634    -0.00736816   
 -0.00089647     0.01118869    -0.00536591   
 -0.00266890     0.01013834    -0.00421910   
 -0.00211255     0.01532917    -0.00548936   
 -0.00311732     0.01013834    -0.00372719   
 -0.00407554     0.00904564    -0.00284449   
 -0.00558894     0.01410111    -0.00389599   
 -0.00459365     0.00904564    -0.00246623   
 -0.00492181     0.00797117    -0.00179054   
 -0.00807191     0.01280277    -0.00255533   
 -0.00554524     0.00797117    -0.00149696   
 -0.00539993     0.00695541    -0.00097446   
 -0.00982456     0.01149095    -0.00142702   
 -0.00613021     0.00695541    -0.00074242   
 -0.00563833     0.00602036    -0.00033205   
 -0.01105000     0.01020423    -0.00047452   
 -0.00645741     0.00602036    -0.00014506   
 -0.00571769     0.00517273     0.00018189   
 -0.01188907     0.00896056     0.00033126   
 -0.00659589     0.00517273     0.00033470   
 -0.00568253     0.00440777     0.00059680   
 -0.01242204     0.00775678     0.00101078   
 -0.00658223     0.00440777     0.00072183   
 -0.00554788     0.00371078     0.00092954   
 -0.01266973     0.00656580     0.00157536   
 -0.00642431     0.00371078     0.00102959   
 -0.00530143     0.00305609     0.00118640   
 -0.01258597     0.00533146     0.00202496   
 -0.00610078     0.00305609     0.00126090   
 -0.00490048     0.00240415     0.00136414   
 -0.01203830     0.00397308     0.00234497   
 -0.00555575     0.00240415     0.00140963   
 -0.00425773     0.00169082     0.00145383   
 -0.01071122     0.00250612     0.00251015   
 -0.00467754     0.00169082     0.00146718   
 -0.00322430     0.00081779     0.00146395   
</DataArray> 
</PointData> 
</Piece> 
</UnstructuredGrid> 
</VTKFile> 
